LAMMPS (14 Dec 2021)
OMP_NUM_THREADS environment is not set. Defaulting to 1 thread. (src/comm.cpp:98)
  using 1 OpenMP thread(s) per MPI task
package omp 0
using multi-threaded neighbor list subroutines
package omp 1
using multi-threaded neighbor list subroutines


# ----------------- Init Section -----------------

include "system.in.init"
    # Default styles and settings for AMBER based force-fields:
    units           real
    atom_style      full
    bond_style      hybrid harmonic
    angle_style     hybrid harmonic
    dihedral_style  hybrid fourier
    improper_style  hybrid cvff
    pair_style      hybrid lj/charmm/coul/long 9.0 10.0 10.0
    kspace_style    pppm 0.0001

    # NOTE: If you do not want to use long-range coulombic forces,
    #       comment out the two lines above and uncomment this line:
    # pair_style      hybrid lj/charmm/coul/charmm 9.0 10.0

    pair_modify     mix arithmetic
    special_bonds   amber


# ----------------- Atom Definition Section -----------------

read_data "cleanedsystem.data"
Reading data file ...
  orthogonal box = (0 0 0) to (220 220 220)
  4 by 4 by 4 MPI processor grid
  reading atoms ...
  193113 atoms
  scanning bonds ...
  3 = max bonds/atom
  scanning angles ...
  3 = max angles/atom
  scanning dihedrals ...
  9 = max dihedrals/atom
  scanning impropers ...
  2 = max impropers/atom
  reading bonds ...
  193113 bonds
  reading angles ...
  253560 angles
  reading dihedrals ...
  386226 dihedrals
  reading impropers ...
  49014 impropers
Finding 1-2 1-3 1-4 neighbors ...
  special bond factors lj:    0        0        0.5     
  special bond factors coul:  0        0        0.8333333333333334
     3 = max # of 1-2 neighbors
     6 = max # of 1-3 neighbors
    11 = max # of 1-4 neighbors
    13 = max # of special neighbors
  special bonds CPU = 0.014 seconds
  read_data CPU = 3.187 seconds


# ----------------- Settings Section -----------------

include "cleanedsystem.in.settings"
pair_coeff 1 1 lj/charmm/coul/long 0.2100 3.39966950842 # cp C DLM 11/2007 well depth from OPLS replacing 0.0860
pair_coeff 2 2 lj/charmm/coul/long 0.0860 3.39966950842 # sp2 atom in the middle of C=CD-CD=C
pair_coeff 3 3 lj/charmm/coul/long 0.0860 3.39966950842 # OPLS
pair_coeff 4 4 lj/charmm/coul/long 0.0150 2.59964245953 # Spellmeyer
pair_coeff 5 5 lj/charmm/coul/long 0.0157 1.06907846177 # !Ferguson base pair geom.
pair_coeff 6 6 lj/charmm/coul/long 0.0000 0.0 # OPLS Jorgensen, JACS,110,(1988),1657
pair_coeff 7 7 lj/charmm/coul/long 0.1700 3.24999852378 # OPLS
pair_coeff 8 8 lj/charmm/coul/long 0.1700 3.24999852378 # OPLS
pair_coeff 9 9 lj/charmm/coul/long 0.2100 2.95992190115 # OPLS
pair_coeff 10 10 lj/charmm/coul/long 0.2104 3.06647338784 # OPLS
bond_coeff 1 harmonic 404.1 1.4400 # SOUECE3 1
bond_coeff 2 harmonic 777.0 1.1660 # SOURCE2 9 0.0052
bond_coeff 3 harmonic 357.2 1.4800 # SOUECE3 1
bond_coeff 4 harmonic 390.5 1.4070 # SOURCE3 9 0.0124
bond_coeff 5 harmonic 623.6 1.2244 # SOURCE4 15 0.0036
bond_coeff 6 harmonic 425.4 1.3330 # SOURCE1 53 0.0000
bond_coeff 7 harmonic 478.4 1.3870 # SOURCE1 6228 0.0147
bond_coeff 8 harmonic 344.3 1.0870 # SOURCE3 1496 0.0045
bond_coeff 9 harmonic 551.6 1.3030 # SOURCE4 7 0.0058
bond_coeff 10 harmonic 372.3 1.4220 # SOURCE3 9 0.0098
bond_coeff 11 harmonic 375.5 1.0290 # SOURCE3 108 0.0096
bond_coeff 12 harmonic 410.2 1.0090 # SOURCE3 149 0.0098
bond_coeff 13 harmonic 369.6 0.9740 # SOURCE3 367 0.0105
angle_coeff 1 harmonic 76.69 121.23 # SOURCE4 6 0.0958
angle_coeff 2 harmonic 65.86 120.00 # SOURCE3 1
angle_coeff 3 harmonic 64.69 120.60 # SOURCE3 1
angle_coeff 4 harmonic 67.18 119.97 # SOURCE3 1969 0.3480
angle_coeff 5 harmonic 48.46 120.01 # SOURCE3 2980 0.2511
angle_coeff 6 harmonic 70.95 119.57 # SOURCE3 1
angle_coeff 7 harmonic 67.97 119.89 # SOURCE3 18 0.2095
angle_coeff 8 harmonic 50.01 120.00 # SOURCE3 1
angle_coeff 9 harmonic 64.88 116.54 # SOURCE3 1
angle_coeff 10 harmonic 47.33 118.36 # SOURCE4 40 1.8005
angle_coeff 11 harmonic 47.36 115.94 # SOURCE4 537 1.8890
angle_coeff 12 harmonic 49.91 108.98 # SOURCE3 6 2.2379
dihedral_coeff 1 fourier 1 0.0 2 180.0 #
dihedral_coeff 2 fourier 1 0.7 2 180.0 # optimized by Junmei Wang, March 2013
dihedral_coeff 3 fourier 1 0.65 2 180.0 #
dihedral_coeff 4 fourier 1 1.05 2 180.0 # parm99
dihedral_coeff 5 fourier 1 3.625 2 180.0 # intrpol.bsd.on C6H6
dihedral_coeff 6 fourier 1 0.45 2 180.0 #
dihedral_coeff 7 fourier 1 0.0 3 180.0 #
improper_coeff 1 cvff 1.1 -1 2 # bsd.on C6H6 nmodes
improper_coeff 2 cvff 1.1 -1 2 # JCC,7,(1986),230
improper_coeff 3 cvff 1.1 -1 2 #


# ----------------- Run Section -----------------

neighbor	    2.0 bin
neigh_modify	every 1 delay 0 check yes
timestep        2.0

# Initial minimization and equilibration
dump		pre_polym all xtc 5000 pre_polym.xtc
thermo_style custom step temp press pe ke etotal epair ebond eangle edihed eimp vol
thermo 500

minimize 	0 1e-8 1000 10000
PPPM initialization ...
  using 12-bit tables for long-range coulomb (src/kspace.cpp:340)
  G vector (1/distance) = 0.21160108
  grid = 64 64 64
  stencil order = 5
  estimated absolute RMS force accuracy = 0.038164899
  estimated relative force accuracy = 0.00011493246
  using double precision FFTW3
  3d grid and FFT values/proc = 9261 4096
  generated 45 of 45 mixed pair_coeff terms from arithmetic mixing rule
Hybrid pair style last /omp style lj/charmm/coul/long
Last active /omp style is kspace_style pppm/omp
Neighbor list info ...
  update every 1 steps, delay 0 steps, check yes
  max neighbors/atom: 2000, page size: 100000
  master list distance cutoff = 12
  ghost atom cutoff = 12
  binsize = 6, bins = 37 37 37
  1 neighbor lists, perpetual/occasional/extra = 1 0 0
  (1) pair lj/charmm/coul/long, perpetual
      attributes: half, newton on, omp
      pair build: half/bin/newton/omp
      stencil: half/bin/3d
      bin: standard
Per MPI rank memory allocation (min/avg/max) = 17.95 | 18.34 | 18.49 Mbytes
Step Temp Press PotEng KinEng TotEng E_pair E_bond E_angle E_dihed E_impro Volume 
       0            0   -1673.3499      1174989            0      1174989      1092080    78623.545    4283.6519    1.6470748   0.14547781     10648000 
     500            0   -1926.0089   -1374469.1            0   -1374469.1   -1407753.9    7507.0369    2802.0381    22631.289    344.49266     10648000 
    1000            0   -1381.5513   -1700284.9            0   -1700284.9   -1727778.3    5060.7172    2028.8031    20080.669    323.23099     10648000 
Loop time of 20.5139 on 64 procs for 1000 steps with 193113 atoms

97.9% CPU use with 64 MPI tasks x 1 OpenMP threads

Minimization stats:
  Stopping criterion = max iterations
  Energy initial, next-to-last, final = 
      1174989.01353807  -1699986.19405854   -1700284.8687139
  Force two-norm initial, final = 92304.219 998.62156
  Force max component initial, final = 35336.39 154.73853
  Final line search alpha, max atom move = 0.0013521027 0.20922239
  Iterations, force evaluations = 1000 1129

MPI task timing breakdown:
Section |  min time  |  avg time  |  max time  |%varavg| %total
---------------------------------------------------------------
Pair    | 7.3062     | 9.4876     | 12.119     |  38.6 | 46.25
Bond    | 1.1335     | 1.4018     | 1.6324     |   8.8 |  6.83
Kspace  | 5.4827     | 8.3638     | 10.812     |  44.6 | 40.77
Neigh   | 0.45812    | 0.46173    | 0.46632    |   0.3 |  2.25
Comm    | 0.41266    | 0.44144    | 0.46188    |   2.0 |  2.15
Output  | 0.0010185  | 0.0011743  | 0.0015396  |   0.3 |  0.01
Modify  | 0.058833   | 0.086565   | 0.105      |   4.1 |  0.42
Other   |            | 0.2698     |            |       |  1.32

Nlocal:        3017.39 ave        3585 max        2365 min
Histogram: 2 0 2 11 9 18 12 3 5 2
Nghost:        5743.78 ave        7053 max        4887 min
Histogram: 4 10 12 6 9 11 9 1 0 2
Neighs:         228695 ave      297213 max      169545 min
Histogram: 2 7 10 8 9 11 5 6 4 2

Total # of neighbors = 14636485
Ave neighs/atom = 75.792334
Ave special neighs/atom = 8.4331764
Neighbor list builds = 35
Dangerous builds = 0

write_data 	min.data
System init for write_data ...
PPPM initialization ...
  using 12-bit tables for long-range coulomb (src/kspace.cpp:340)
  G vector (1/distance) = 0.21160108
  grid = 64 64 64
  stencil order = 5
  estimated absolute RMS force accuracy = 0.038164899
  estimated relative force accuracy = 0.00011493246
  using double precision FFTW3
  3d grid and FFT values/proc = 9261 4096
  generated 45 of 45 mixed pair_coeff terms from arithmetic mixing rule
Hybrid pair style last /omp style lj/charmm/coul/long
Last active /omp style is kspace_style pppm/omp

velocity all create 300.0 123456 dist gaussian

fix 1 all nve
fix 3 all temp/rescale 1 300.0 300.0 10.0 1.0
run           2500000
PPPM initialization ...
  using 12-bit tables for long-range coulomb (src/kspace.cpp:340)
  G vector (1/distance) = 0.21160108
  grid = 64 64 64
  stencil order = 5
  estimated absolute RMS force accuracy = 0.038164899
  estimated relative force accuracy = 0.00011493246
  using double precision FFTW3
  3d grid and FFT values/proc = 9261 4096
  generated 45 of 45 mixed pair_coeff terms from arithmetic mixing rule
Hybrid pair style last /omp style lj/charmm/coul/long
Last active /omp style is kspace_style pppm/omp
Per MPI rank memory allocation (min/avg/max) = 16.82 | 17.26 | 17.75 Mbytes
Step Temp Press PotEng KinEng TotEng E_pair E_bond E_angle E_dihed E_impro Volume 
    1000          300   -640.19051   -1700284.9    172689.06   -1527595.8   -1727778.3    5060.7172    2028.8031    20080.669    323.23099     10648000 
    1500    301.55329   -453.48687   -1770893.3    173583.18   -1597310.1     -1870043    30080.849    24164.529    43653.156     1251.115     10648000 
    2000    302.60481   -268.51601   -1832400.5    174188.46     -1658212   -1935091.9    29767.502    27018.793    44659.253    1245.8212     10648000 
    2500    303.46051   -186.70458   -1862992.3    174681.03   -1688311.3   -1972122.6     31159.53     29723.09    46886.708    1360.9844     10648000 
    3000    305.80347    -143.4378   -1882115.7    176029.71     -1706086   -1997821.6    33776.399    32255.769    48219.564    1454.1477     10648000 
    3500    308.41465    -195.1558     -1895595    177532.79   -1718062.2   -2016863.1    36315.222     34354.58    49057.863    1540.4664     10648000 
    4000    306.09579   -183.32889   -1906159.2    176197.98   -1729961.2   -2032149.3    38750.123    35790.496    49818.693    1630.7806     10648000 
    4500    307.50196   -168.88361   -1913020.9    177007.41   -1736013.5   -2043643.2    40911.787    37249.451    50762.947    1698.0651     10648000 
    5000    307.74296    -240.7846   -1919293.4    177146.14   -1742147.2   -2053117.2    43388.534    38161.565    50551.163    1722.5724     10648000 
    5500    306.46584   -212.86751   -1924587.1    176410.99   -1748176.1   -2060905.6    45049.072    38965.538    50532.788    1771.1251     10648000 
    6000    304.82766   -250.28494     -1929658       175468     -1754190   -2067823.2    46739.906    39169.262    50464.552    1791.4492     10648000 
    6500     308.2379   -219.10112   -1931721.4    177431.04   -1754290.3   -2073258.3    48767.475    40198.533    50730.064    1840.8675     10648000 
    7000    305.01749   -258.40706   -1935954.1    175577.28   -1760376.9     -2078441    50074.786    40229.348    50367.879    1814.8083     10648000 
    7500    307.37983   -217.40778     -1937452    176937.11   -1760514.9   -2082672.4    51545.652    41103.857    50715.765    1855.0669     10648000 
    8000    308.76559   -257.25742   -1938307.8    177734.79     -1760573   -2085762.2    53229.044    41563.111    50784.819    1877.3936     10648000 
    8500    304.95255   -246.72332   -1942149.9    175539.89     -1766610     -2089621    53964.533    41560.737     50090.68    1855.0782     10648000 
    9000    306.90665   -209.18889   -1943328.3    176664.73   -1766663.6   -2092446.5    55103.344    41909.329    50230.285    1875.2748     10648000 
    9500    307.71788   -273.92273   -1943853.7     177131.7     -1766722   -2094791.6    56272.702    42341.497    50425.401    1898.3501     10648000 
   10000    308.41734   -291.98919   -1944306.7    177534.33   -1766772.3   -2096691.1    57405.444    42423.146    50641.676    1914.2034     10648000 
   10500    304.91188   -225.31111   -1948332.8    175516.48   -1772816.4   -2099740.8    57713.772    41841.777     49963.56    1888.8348     10648000 
   11000    305.52593   -264.05426   -1948672.9    175869.95     -1772803   -2101140.3    58555.052    42398.058    49612.124    1902.1576     10648000 
   11500    305.70129   -274.17083   -1948791.3    175970.89   -1772820.4     -2102404    59494.348    42435.599    49788.411    1894.3459     10648000 
   12000    307.92579   -215.85567   -1950173.5    177251.38   -1772922.1   -2104237.1    59860.576    42444.487    49850.768    1907.7053     10648000 
   12500    307.72534   -244.16943   -1950004.1       177136   -1772868.1   -2105315.9    60503.787      42659.3    50235.054    1913.7045     10648000 
   13000    308.32339    -250.2817   -1950381.3    177480.25   -1772901.1     -2106792    61554.442    43012.569     49930.58    1913.0598     10648000 
   13500    304.03669   -281.91802   -1954094.3     175012.7   -1779081.6   -2108434.7    60678.291     42356.04    49420.658    1885.4151     10648000 
   14000    304.56075   -221.85496   -1954402.1    175314.36   -1779087.7   -2109711.2    61296.754    42600.486    49520.931    1890.9286     10648000 
   14500    304.76397     -271.586   -1954513.8    175431.34   -1779082.5     -2110353    61739.047     42577.67    49594.272    1928.2138     10648000 
   15000    304.59012   -259.52269     -1954382    175331.27   -1779050.7   -2111167.9    62491.151    42944.111    49430.829    1919.7716     10648000 
   15500    305.98807   -275.28892   -1955200.6    176135.97   -1779064.7   -2112062.9     63028.21    42707.544    49229.557     1896.959     10648000 
   16000    306.44027   -259.88424   -1955491.6    176396.27   -1779095.4   -2112529.6    63071.403    42779.177    49279.972    1907.4014     10648000 
   16500    306.37545   -308.72234   -1955491.4    176358.96   -1779132.4   -2113155.4    63727.816    42865.429    49171.654    1899.1008     10648000 
   17000    306.42442   -222.09749   -1955480.8    176387.15   -1779093.7   -2114082.8    63780.202    43531.734    49354.955     1935.058     10648000 
   17500    307.39155   -265.96132   -1956152.4    176943.86   -1779208.5   -2114686.8    63986.634    43146.598    49482.366    1918.7729     10648000 
   18000    307.85482   -290.46492   -1956385.3    177210.53   -1779174.8   -2115454.6    64509.928    43242.447    49401.595    1915.2801     10648000 
   18500    307.86372   -267.44667     -1956370    177215.65   -1779154.4   -2116009.9    64802.512    43321.011     49576.55    1939.8022     10648000 
   19000    308.21617   -244.81476     -1956612    177418.53   -1779193.5   -2116124.2    64808.423    43398.238    49372.792    1932.7371     10648000 
   19500     308.7796    -256.8155   -1956920.8    177742.86   -1779177.9   -2116604.6    65278.528     43148.46    49323.477    1933.2979     10648000 
   20000    303.63649   -318.37449   -1959927.3    174782.33     -1785145   -2117615.7    64472.295    42675.987    48637.804      1902.26     10648000 
   20500    303.62361   -336.66758   -1959909.6    174774.92   -1785134.7   -2118327.3     64814.34    42769.486    48936.996    1896.8871     10648000 
   21000      305.147   -320.52839   -1960860.1    175651.83   -1785208.3   -2119274.4    64735.039     42725.76    49060.396    1893.0827     10648000 
   21500    305.03619   -240.53234   -1960775.4    175588.04   -1785187.3   -2119386.9    64909.865    42807.798        48986      1907.87     10648000 
   22000    305.66728   -241.41588   -1961137.7    175951.31   -1785186.4   -2119755.1    64975.741    42792.301    48946.676     1902.634     10648000 
   22500    305.45297    -263.8871   -1961011.8    175827.95   -1785183.9   -2119616.5    65068.556    42928.643    48684.971    1922.4455     10648000 
   23000    305.72396   -245.80279   -1961135.1    175983.94   -1785151.1   -2120012.4    65398.372    42800.036    48791.438     1887.452     10648000 
   23500    305.54243   -243.35494   -1961040.3    175879.44   -1785160.8   -2120163.9    65211.465      43477.4    48536.525    1898.2117     10648000 
   24000    306.00373   -302.18755   -1961339.7    176144.99   -1785194.8   -2120435.8    65117.833    43158.619    48896.882    1922.7164     10648000 
   24500    305.67375   -318.62775   -1961091.3    175955.04   -1785136.3   -2120907.7    66048.432    43132.313     48743.49    1892.1959     10648000 
   25000    305.35606   -295.80552   -1960920.2    175772.17   -1785148.1   -2121029.7    65781.323    43335.605    49060.695    1931.8647     10648000 
   25500    306.88343   -306.27278   -1961779.1    176651.37   -1785127.8   -2121490.3    65906.701    43241.104    48666.039    1897.3602     10648000 
   26000    306.16253    -313.7541   -1961383.3    176236.39   -1785146.9   -2121524.8      66197.5    43138.216    48874.161    1931.5989     10648000 
   26500    306.28549   -312.59803   -1961474.7    176307.17   -1785167.5   -2121777.1    66103.609    43305.782    48983.879    1909.1919     10648000 
   27000    306.81252   -253.94959     -1961748    176610.55   -1785137.5   -2122186.1    66127.419    43251.156    49131.893    1927.5599     10648000 
   27500    306.73608    -330.4716   -1961710.8    176566.55   -1785144.2     -2121940    66100.211    43345.416    48878.141    1905.4598     10648000 
   28000    307.40148   -263.41938   -1962016.2    176949.57   -1785066.6   -2122220.3    66244.664     43080.21    48964.292    1914.9982     10648000 
   28500    307.67935   -231.07094   -1962197.6    177109.52   -1785088.1   -2122469.9     66198.32    43212.397    48930.138    1931.4549     10648000 
   29000     307.4808   -316.54863   -1962109.5    176995.23   -1785114.3   -2122601.4    66380.595    43212.967    48988.336    1909.9448     10648000 
   29500    307.60512   -255.73298   -1962175.4    177066.79   -1785108.6   -2122895.4    66482.467    43617.615     48701.47    1918.4944     10648000 
   30000    307.51277   -236.21786   -1962079.3    177013.63   -1785065.7   -2122846.6    66724.978    43579.688    48562.028     1900.635     10648000 
   30500    307.66601   -258.98327   -1962148.4    177101.84   -1785046.6   -2123269.9    66977.159    43549.621    48680.482    1914.2287     10648000 
   31000    308.62583   -266.95686     -1962691    177654.35   -1785036.7   -2123458.1    66856.725    43301.905    48701.662    1906.7723     10648000 
   31500    307.81157   -269.84241     -1962183    177185.63   -1784997.4     -2123397    66792.994    43601.772    48892.454    1926.7171     10648000 
   32000    307.76776   -303.62971   -1962203.9    177160.42   -1785043.5   -2123799.6    66852.008    43699.817     49116.81    1927.0431     10648000 
   32500    308.52859   -262.45154     -1962618    177598.37   -1785019.6   -2123903.4    66848.596    43537.352     48986.34     1913.142     10648000 
   33000    308.97088   -309.12736   -1962859.6    177852.97   -1785006.7   -2124133.3    67126.036    43570.772    48660.797    1916.0897     10648000 
   33500    308.81661   -258.22917   -1962821.7    177764.16   -1785057.5   -2123665.4     66762.29    43409.442    48766.293    1905.7118     10648000 
   34000    308.54798   -370.98215   -1962591.9    177609.53   -1784982.3     -2124039     67148.63    43620.535    48760.631    1917.3008     10648000 
   34500    304.02405   -275.73671   -1965943.5    175005.42   -1790938.1   -2124877.2    65898.742    42738.222    48388.144     1908.538     10648000 
   35000    303.55178   -239.43553   -1965678.7    174733.57   -1790945.2   -2125121.4    65955.904    42982.302    48604.789    1899.6566     10648000 
   35500    304.12825   -268.41014   -1965967.8     175065.4   -1790902.4   -2125079.7    66164.155    43000.829    48056.865    1890.1359     10648000 
   36000    303.95207   -222.44601   -1965842.9    174963.99   -1790878.9   -2125379.3    66060.911    43088.923    48490.524    1896.0851     10648000 
   36500    304.22447   -244.81554   -1966057.3    175120.79   -1790936.5     -2125364    66228.313    42777.546    48394.242    1906.5923     10648000 
   37000    305.10633   -347.15482   -1966549.5    175628.42   -1790921.1   -2125737.3    66049.676    42861.296    48372.647    1904.2223     10648000 
   37500    304.75775   -288.16968   -1966304.1    175427.76   -1790876.3   -2126048.8    66171.746    43103.761     48570.91    1898.3245     10648000 
   38000    303.78947   -272.08253   -1965713.3    174870.39   -1790842.9   -2125661.3    66446.011    43203.109    48404.304    1894.5473     10648000 
   38500    305.04756   -338.17472     -1966470    175594.59   -1790875.4   -2126024.2    66363.413    42917.626    48370.495    1902.6522     10648000 
   39000    304.68022   -311.74729   -1966269.2    175383.13   -1790886.1   -2126166.4    66525.744    42869.461    48593.727    1908.2179     10648000 
   39500    304.65343   -252.64234   -1966223.3    175367.71   -1790855.6   -2125870.8    66175.774    43360.843    48236.929    1873.9584     10648000 
   40000    304.71042   -316.62981   -1966279.6    175400.52     -1790879   -2126062.6    66451.043    43291.785    48150.692    1889.4778     10648000 
   40500    305.40939   -343.20556   -1966689.9    175802.86     -1790887   -2126302.4    66562.295    43217.453    47958.877     1873.873     10648000 
   41000    304.68204   -300.01353   -1966157.4    175384.18   -1790773.2   -2126339.5    66801.909     43104.37    48375.633    1900.2179     10648000 
   41500    304.73268   -264.56873   -1966166.7    175413.33   -1790753.4   -2126519.4    66672.167    43253.058     48542.25    1885.2588     10648000 
   42000    305.31787   -289.36147   -1966588.3    175750.18   -1790838.1   -2126758.1    66358.303    43380.231    48537.856    1893.3809     10648000 
   42500     305.6517   -303.63868     -1966734    175942.35   -1790791.7   -2126674.1    66385.123    43150.996    48496.885    1907.0693     10648000 
   43000    305.66362    -320.4682   -1966737.2    175949.21     -1790788   -2126511.2    66514.184    43204.585     48151.82    1903.4282     10648000 
   43500    305.60753   -292.16495   -1966721.6    175916.92   -1790804.7   -2126718.6    66581.006    43137.329    48379.349    1899.2918     10648000 
   44000    305.35371    -251.3674     -1966590    175770.82   -1790819.2   -2126895.2    66664.548    43209.996      48537.3     1893.398     10648000 
   44500    305.49552   -241.76939   -1966601.8    175852.45   -1790749.4   -2126605.8    66694.521    43003.054    48401.612    1904.7562     10648000 
   45000    305.33977   -229.78399   -1966497.7    175762.79   -1790734.9   -2126969.3    66898.303    43180.119    48482.779    1910.3954     10648000 
   45500    305.76114     -271.322   -1966737.5    176005.34   -1790732.2   -2126994.6    66932.637    43091.456     48342.26    1890.7209     10648000 
   46000       305.67   -315.34887   -1966716.9    175952.88     -1790764   -2127112.3    66508.459    43363.866    48610.234    1912.8738     10648000 
   46500    306.28335   -267.75238   -1967006.5    176305.94   -1790700.6   -2127272.2     66777.67    43022.409    48538.342    1927.2188     10648000 
   47000    306.14396   -228.90207   -1966909.7    176225.71     -1790684   -2127396.4    66618.514    43438.768    48518.112    1911.3804     10648000 
   47500    306.19396   -360.13655   -1966947.2    176254.49   -1790692.7   -2127657.4    66757.708     43518.29    48547.361    1886.8719     10648000 
   48000    306.61901   -237.27926   -1967199.5    176499.16   -1790700.3   -2127357.1    66727.565    43254.291    48287.055    1888.6872     10648000 
   48500    306.18684   -241.52015     -1966943    176250.39   -1790692.7   -2127574.8    66874.224    43356.906    48494.098    1906.5716     10648000 
   49000    306.12988   -278.11079   -1966890.4     176217.6   -1790672.8   -2127464.9    66643.518    43409.726    48597.935    1923.3752     10648000 
   49500    306.01202   -231.41152   -1966750.7    176149.76   -1790600.9   -2127531.5    66807.994    43482.858    48578.736     1911.289     10648000 
   50000     306.7521   -286.88636   -1967206.3    176575.77   -1790630.5   -2127532.7    67025.846    43106.011    48291.596    1902.9973     10648000 
   50500    307.36869   -286.65105   -1967582.2     176930.7   -1790651.5   -2127787.6    66747.827    43196.504    48362.019    1899.0381     10648000 
   51000    306.31795   -202.46005   -1966957.6    176325.86   -1790631.7     -2127688    66874.676    43558.509     48391.99    1905.2992     10648000 
   51500    307.01476   -292.55505   -1967343.5    176726.96   -1790616.5   -2127975.6    66872.383     43336.31    48506.772    1916.5777     10648000 
   52000    307.10503   -250.92154   -1967361.2    176778.93   -1790582.3   -2127619.1    66915.544    43295.994     48134.91    1911.4551     10648000 
   52500    306.93438   -335.74207   -1967254.8     176680.7   -1790574.1   -2128243.3    66962.789    43427.811    48689.347    1908.5375     10648000 
   53000    306.82797    -277.5889   -1967150.5    176619.44     -1790531   -2127774.8    66745.308    43428.667    48540.815    1909.5627     10648000 
   53500    306.87572   -266.56832   -1967187.7    176646.93   -1790540.8   -2128290.3    67061.154     43443.63     48675.28    1922.5222     10648000 
   54000    306.51742   -318.56235   -1966922.8    176440.68   -1790482.2   -2128134.6    66959.872    43794.446    48538.284    1919.1484     10648000 
   54500    307.62976   -279.90378   -1967610.7    177080.98   -1790529.7   -2128050.6    66798.862    43181.878    48550.886    1908.2346     10648000 
   55000    307.22563   -237.37716   -1967322.3    176848.35     -1790474     -2128121    67123.716    43419.317    48356.354    1899.2645     10648000 
   55500    307.02365   -195.77054     -1967261    176732.08   -1790528.9   -2128230.1    66985.551    43557.492     48496.59    1929.5131     10648000 
   56000    306.81412   -297.90112   -1967046.8    176611.47   -1790435.3   -2128269.7    67267.353    43461.968    48575.147     1918.483     10648000 
   56500    307.23611   -321.32697   -1967309.5    176854.38   -1790455.1   -2128436.9    67177.046    43374.737    48662.602    1913.0228     10648000 
   57000     306.6753   -261.14654   -1966992.4    176531.56   -1790460.9   -2128399.5    67300.242    43439.116    48738.968    1928.7578     10648000 
   57500    307.75213   -258.41102   -1967607.1    177151.42   -1790455.7   -2128525.6     67237.23     43417.28    48352.182     1911.755     10648000 
   58000    307.34255   -253.65704   -1967335.9    176915.65   -1790420.3   -2128444.1    67337.992    43307.492    48528.519    1934.1672     10648000 
   58500    307.51674   -279.49661     -1967419    177015.92   -1790403.1   -2128376.7    67386.274    43476.112    48202.595    1892.7848     10648000 
   59000    307.93359   -302.27491   -1967688.8    177255.87   -1790432.9   -2128649.2    67065.046    43386.162    48576.496    1932.7581     10648000 
   59500    308.38557    -272.4534   -1967932.1    177516.05   -1790416.1   -2128629.4    66625.678    43553.214    48601.149    1917.2449     10648000 
   60000       307.99   -235.88763   -1967653.5    177288.34   -1790365.2   -2128777.3    67016.946    43419.845    48770.004    1916.9678     10648000 
   60500     307.5874   -240.29219   -1967413.8    177056.59   -1790357.2   -2128952.4    67280.265     43616.27    48721.796    1920.2965     10648000 
   61000    308.05252   -300.15116   -1967665.9    177324.33   -1790341.6   -2128841.6    67264.657    43544.568    48467.869     1898.604     10648000 
   61500    308.18433   -258.08686   -1967798.7    177400.21   -1790398.5   -2128776.8    66970.857    43442.013     48633.18     1932.053     10648000 
   62000    307.41237   -200.98339   -1967293.6    176955.84   -1790337.7   -2128413.8    67112.569    43572.152     48532.28    1903.2253     10648000 
   62500    308.18703   -315.78983     -1967743    177401.76   -1790341.3   -2129125.7    67391.637    43467.511    48620.812    1902.6712     10648000 
   63000    308.84391   -283.51266   -1968108.8    177779.88   -1790328.9   -2129148.3    67182.002    43537.313    48407.597    1912.6144     10648000 
   63500    308.79383   -242.26139   -1968102.6    177751.05   -1790351.6   -2129187.8    67246.612    43508.636    48421.667    1908.2497     10648000 
   64000    308.04277   -251.94098   -1967621.3    177318.72   -1790302.6   -2129208.3    67482.969    43432.907     48748.55    1922.5573     10648000 
   64500    308.49851   -232.07753   -1967903.2    177581.06   -1790322.1   -2128941.7     66831.34    43468.202    48824.934    1914.0244     10648000 
   65000    308.72459   -286.11774   -1967966.2    177711.19     -1790255   -2129312.5    67241.139    43583.199     48599.74    1922.2821     10648000 
   65500    303.99422   -239.77039   -1971298.2    174988.25   -1796309.9   -2130232.7    65958.234    42853.481    48207.065    1915.7435     10648000 
   66000    303.96134   -240.07524   -1971293.3    174969.32     -1796324   -2129895.1    65810.355    42756.169    48140.221     1895.082     10648000 
   66500    302.92794    -271.3397   -1970589.8    174374.47   -1796215.4   -2130261.1    66462.188    43000.478    48293.861    1914.7119     10648000 
   67000    303.48816   -272.71096   -1970906.1    174696.95   -1796209.2   -2130394.3    66509.747    42916.681    48164.881    1896.8351     10648000 
   67500    304.31366      -247.33   -1971480.1    175172.13     -1796308   -2130063.8    65995.011    42772.483    47926.973    1889.2487     10648000 
   68000    304.08996   -272.61771     -1971251    175043.36   -1796207.6   -2130635.3    66386.984    42923.553     48172.28    1901.4832     10648000 
   68500    304.08928   -210.60459   -1971265.4    175042.97   -1796222.5   -2130365.6    66238.006     42994.27    47993.388     1874.481     10648000 
   69000    304.12757   -280.13417   -1971261.2    175065.01   -1796196.2   -2130509.1    66409.862    43054.063    47896.922    1887.0533     10648000 
   69500    303.96819   -286.58773   -1971256.9    174973.27   -1796283.6   -2130379.3    65953.286    43188.971    48083.905    1896.2713     10648000 
   70000    303.68718   -275.28537   -1970974.2    174811.51   -1796162.7   -2130549.6    66428.462    43130.146    48119.736    1897.0156     10648000 
   70500    304.13682   -205.37757   -1971315.1    175070.33   -1796244.8   -2130396.9    66420.487    42764.702    48011.106    1885.4945     10648000 
   71000    304.31134   -213.24594   -1971410.7    175170.79   -1796239.9   -2130610.6    66135.614    43143.315    48020.568    1900.4312     10648000 
   71500    304.19048   -251.45234   -1971325.2    175101.23   -1796223.9   -2130413.9    66586.791    42898.436    47712.419    1891.1334     10648000 
   72000    304.79343   -301.52677     -1971701     175448.3   -1796252.7   -2130878.2    66349.079    42854.573    48073.484    1900.1463     10648000 
   72500    305.02828   -236.64635   -1971772.1    175583.49   -1796188.6   -2130860.9    66376.028     42950.09    47878.433    1884.2342     10648000 
   73000    304.58288   -287.39538   -1971517.5     175327.1   -1796190.4   -2130882.3    66238.904    43070.395    48160.998    1894.5155     10648000 
   73500    303.85294   -258.87833   -1971074.2    174906.93   -1796167.3   -2131100.9    66704.242    43090.425    48323.926    1908.0429     10648000 
   74000    305.17274   -333.55244   -1971810.7    175666.64     -1796144   -2131083.4    66363.672    42791.109    48203.621    1914.3367     10648000 
   74500    304.46304   -220.40076     -1971372    175258.12   -1796113.9   -2131040.8    66391.462    43234.978    48157.282    1885.1101     10648000 
   75000    304.71758   -280.98785   -1971521.8    175404.64   -1796117.1   -2130897.5    66523.184     42997.91    47961.268    1893.3118     10648000 
   75500    305.13745   -264.53599   -1971750.1    175646.33   -1796103.7   -2131138.5    66382.858    42960.864    48151.532    1893.2281     10648000 
   76000    303.89804   -307.36378   -1971006.7    174932.89   -1796073.8     -2130993    66736.936    43096.312    48254.627    1898.4691     10648000 
   76500    304.30328   -310.58767   -1971191.5    175166.16   -1796025.3   -2131286.8     66721.63    43156.487    48300.887    1916.2739     10648000 
   77000    304.46496   -240.01338   -1971294.9    175259.23   -1796035.7   -2131140.4    66433.236    43281.502    48237.045    1893.6608     10648000 
   77500    304.27228   -301.28518   -1971166.9    175148.31   -1796018.5     -2131104      66779.4    43010.192    48240.661    1906.9075     10648000 
   78000    304.84599   -302.25214   -1971500.2    175478.56   -1796021.6   -2131279.3    66716.026    43008.938    48151.155    1903.0062     10648000 
   78500    304.49806   -257.05857   -1971258.3    175278.27     -1795980   -2131113.1    66740.658    43101.744    48113.405    1899.0567     10648000 
   79000    305.93941   -268.22798   -1972108.2    176107.96   -1796000.2   -2131485.2    66804.932    43008.104     47694.89    1869.0732     10648000 
   79500    304.98171   -294.77377   -1971566.4    175556.68   -1796009.7   -2131788.9     66960.48     42993.82    48354.838    1913.3634     10648000 
   80000    305.23605   -273.97582   -1971735.8    175703.08   -1796032.7   -2131504.1    66608.431    43165.298    48098.097    1896.4569     10648000 
   80500    305.28653   -283.43731   -1971747.1    175732.14   -1796014.9   -2131606.6    66607.782    43023.814    48304.078    1923.8566     10648000 
   81000    305.52169   -300.30819   -1971843.3    175867.51   -1795975.8     -2131774    66469.081    43278.189    48281.723    1901.6078     10648000 
   81500    304.98512   -232.25708     -1971481    175558.64   -1795922.4   -2131556.1    66654.973    43080.504    48437.579    1902.0575     10648000 
   82000    305.33774   -260.71698   -1971735.4    175761.62   -1795973.8     -2131519    66712.314    42735.509    48427.457    1908.2755     10648000 
   82500    305.12082   -261.19029     -1971542    175636.76   -1795905.2   -2131661.5    66607.446    43224.445    48393.073      1894.62     10648000 
   83000    304.70508   -329.79809   -1971337.4    175397.45   -1795939.9   -2131913.7    67075.398    43368.266    48231.928     1900.707     10648000 
   83500    305.89715   -278.45679   -1972055.7    176083.64     -1795972   -2131745.8    66478.809    43310.515    48012.048    1888.7612     10648000 
   84000     304.9922   -306.45344   -1971419.5    175562.72   -1795856.8   -2131763.6     66954.15    43180.096    48311.137    1898.7651     10648000 
   84500    306.07279    -301.1627   -1972141.1    176184.74   -1795956.4   -2132206.7    66770.919    43035.224     48361.99    1897.4781     10648000 
   85000    305.63945   -190.45272     -1971913    175935.29   -1795977.7   -2132130.7    66688.617    43240.906    48364.644    1923.5061     10648000 
   85500    305.13948   -218.35147   -1971491.5     175647.5     -1795844     -2132024    66814.028    43527.325    48281.315    1909.7607     10648000 
   86000    305.38708   -277.68029   -1971680.3    175790.02   -1795890.3     -2131999    66714.626    43222.884    48469.179    1911.9292     10648000 
   86500    305.27169   -272.34946   -1971600.5     175723.6   -1795876.9   -2132116.2     66922.95     43201.05    48476.924    1914.7635     10648000 
   87000    305.65978   -215.57032   -1971749.2       175947   -1795802.2   -2131769.8    66815.997    43154.065    48146.114    1904.4044     10648000 
   87500    305.91884   -261.71936   -1971978.8    176096.12   -1795882.6   -2132101.4    66959.482    43051.373    48211.118    1900.6666     10648000 
   88000    305.11781   -285.85733   -1971465.5    175635.02   -1795830.5   -2131945.1    66886.509    43198.292    48480.692    1914.0741     10648000 
   88500    307.14902   -215.45825   -1972649.7    176804.25   -1795845.4     -2132195    66625.939    43049.839    47975.954    1893.5774     10648000 
   89000    306.34483   -250.50013   -1972145.3    176341.33   -1795803.9   -2132068.4    66612.663    43219.314    48186.682    1904.4919     10648000 
   89500      305.309   -266.22158   -1971478.2    175745.08   -1795733.2   -2132443.7    67055.551    43386.744    48598.178    1924.9681     10648000 
   90000    306.33759   -251.09782   -1972087.7    176337.16   -1795750.6   -2132221.5    66931.519    42994.974    48305.157    1902.1152     10648000 
   90500    306.02608   -264.47341   -1971969.6    176157.85   -1795811.8   -2132437.5    66899.088    43423.438    48240.522    1904.8595     10648000 
   91000    305.96298    -280.0491   -1971975.2    176121.53   -1795853.7   -2132195.6    66664.295    43547.201    48123.007    1885.8718     10648000 
   91500    305.62403   -249.77327   -1971655.9    175926.42   -1795729.5   -2132049.5    66833.244     43389.06    48261.824    1909.4431     10648000 
   92000    306.83422   -254.90537   -1972405.2    176623.04   -1795782.1   -2132299.5    66923.909    43004.817    48084.802    1880.8035     10648000 
   92500    305.47115   -205.42577   -1971583.2    175838.41   -1795744.8     -2131913    67000.793    43244.029    48184.742    1900.2183     10648000 
   93000    306.14786   -239.04614   -1971979.4    176227.95   -1795751.5   -2132732.7    66806.928    43285.449    48757.382    1903.5723     10648000 
   93500    305.81062   -263.48515   -1971820.3    176033.83   -1795786.5   -2132264.4    66682.663    43406.142    48448.035    1907.2047     10648000 
   94000    306.55618   -272.40404   -1972186.4    176462.99   -1795723.4   -2132612.9     67040.54    43247.014    48241.777    1897.1658     10648000 
   94500    306.33725   -313.67737   -1972058.1    176336.97   -1795721.2   -2132690.9    67158.947    43232.089    48342.207    1899.5378     10648000 
   95000    306.62326   -270.70587   -1972289.8    176501.61   -1795788.2   -2132801.2    66862.965    43530.217    48225.337     1892.869     10648000 
   95500    306.17249   -268.32744   -1971965.4    176242.13   -1795723.3   -2132638.7    66756.098    43411.634    48577.826    1927.7304     10648000 
   96000    306.05831   -222.66513     -1971821     176176.4   -1795644.6   -2132416.8    67316.279    43150.019    48216.671    1912.7912     10648000 
   96500    306.35557   -279.20638   -1972007.6    176347.51   -1795660.1   -2132593.4    67191.277    43342.622    48143.792    1908.0514     10648000 
   97000    306.11605   -268.50422     -1971844    176209.64   -1795634.4   -2132533.6    67239.858    43512.795    48047.052    1889.8537     10648000 
   97500    306.80097   -283.86883   -1972273.1     176603.9   -1795669.2   -2132726.4    67021.701    43206.354    48317.876    1907.3326     10648000 
   98000    306.19438   -336.46728   -1971880.3    176254.73   -1795625.6   -2132765.8    67131.846    43444.803    48403.776    1905.0779     10648000 
   98500    306.27661   -277.61319   -1971895.7    176302.06   -1795593.6   -2132617.3    67185.063    43343.081    48282.628    1910.8095     10648000 
   99000    306.56438   -254.23267     -1972080    176467.71   -1795612.3   -2132342.3     66987.79    43127.781    48239.956    1906.6956     10648000 
   99500    305.99429   -315.25324   -1971739.2    176139.55   -1795599.7   -2132552.4    66954.343    43399.466    48550.585    1908.7306     10648000 
  100000    306.41032   -264.44947   -1971989.9    176379.03   -1795610.9   -2132644.7    67252.167    43170.538    48315.212    1916.9304     10648000 
  100500    305.77556    -276.6239     -1971542    176013.64   -1795528.4     -2132226    67169.439    43382.218    48217.876    1914.4806     10648000 
  101000    306.60327   -281.38502   -1972069.4     176490.1   -1795579.3   -2132479.7    67046.619    43240.382    48216.234     1907.134     10648000 
  101500     306.4324   -237.35893   -1971908.5    176391.74   -1795516.7   -2132379.7    67045.164    43435.147    48094.966    1896.0028     10648000 
  102000    306.76335   -285.66846   -1972126.3    176582.25   -1795544.1   -2132401.5    67070.808    43059.189    48231.472    1913.6878     10648000 
  102500    306.00888   -231.20367   -1971669.9    176147.95   -1795521.9   -2132203.6    66923.021    43304.484    48381.205    1924.9685     10648000 
  103000    306.49737   -289.97004   -1971986.5    176429.14   -1795557.4   -2132909.6    67010.524     43419.02    48568.262    1925.2264     10648000 
  103500    306.98511   -288.13376   -1972230.5     176709.9   -1795520.6   -2133090.7    67038.995     43226.79    48670.328    1924.0565     10648000 
  104000    307.09097   -237.65484   -1972254.1    176770.83   -1795483.2   -2132902.3    67034.474    43183.979    48522.053    1907.7725     10648000 
  104500    306.69478   -264.04769   -1972026.6    176542.77   -1795483.8     -2132980    67059.126    43362.612    48613.752     1917.978     10648000 
  105000    306.07288      -237.49   -1971599.8    176184.79     -1795415   -2132650.4    67207.598    43520.533    48425.732    1896.7729     10648000 
  105500    306.79816   -249.01483   -1972001.4    176602.28   -1795399.1   -2133123.6    67561.692     43327.68    48313.003    1919.8412     10648000 
  106000    307.19239   -209.22902   -1972292.9    176829.22   -1795463.7   -2132686.1    67054.715    43312.361    48123.306    1902.7434     10648000 
  106500    307.59506   -261.22913   -1972550.3       177061   -1795489.3   -2133191.4    66984.262    43289.183    48458.516    1909.1471     10648000 
  107000    306.85839   -260.79921   -1972056.9    176636.95     -1795420   -2133174.2    67344.186    43260.818    48571.889    1940.4173     10648000 
  107500    307.57685   -288.66972   -1972531.7    177050.52   -1795481.2   -2133353.7    67046.586    43541.464     48334.98    1898.9138     10648000 
  108000    307.26987   -259.61636   -1972357.5    176873.82   -1795483.7   -2133335.1    66911.923    43510.783    48633.706    1921.1549     10648000 
  108500    307.39215   -279.04057   -1972412.7     176944.2   -1795468.5   -2133400.3     67416.52    43365.912    48306.973    1898.1318     10648000 
  109000    307.62788   -305.49387   -1972495.2    177079.89   -1795415.3   -2133654.1    67346.371    43593.268    48328.885    1890.3054     10648000 
  109500    307.95349   -241.08444   -1972722.6    177267.33   -1795455.3   -2133341.4    67042.677    43416.131    48258.932    1901.0598     10648000 
  110000    308.21771   -240.06584   -1972850.9    177419.42   -1795431.5   -2133568.8    66934.112    43382.615    48500.133    1901.0483     10648000 
  110500    306.79234   -286.85029   -1971988.2    176598.93   -1795389.3   -2133287.7    67077.236    43686.171    48632.793    1903.2665     10648000 
  111000    307.83997   -246.35413   -1972562.4    177201.98   -1795360.5   -2133462.3    67379.307    43265.009    48353.192    1902.3921     10648000 
  111500    307.29104   -269.06864   -1972278.4       176886   -1795392.4     -2133308    67313.318    43521.626     48300.48    1894.2258     10648000 
  112000    307.34592   -281.14279   -1972261.6    176917.59     -1795344   -2133108.8    66806.947    43568.066    48567.937    1904.1773     10648000 
  112500    307.37938   -208.33453   -1972259.8    176936.85     -1795323   -2133209.3    67050.742    43257.144     48702.73    1938.8817     10648000 
  113000    307.52802   -292.27172   -1972322.6    177022.41   -1795300.1   -2133619.2    67359.277    43330.579    48687.625    1919.1675     10648000 
  113500    307.15406   -290.70372   -1972062.7    176807.15   -1795255.6   -2133700.2    67558.066    43492.734    48665.893    1920.8288     10648000 
  114000    307.13893   -260.65367   -1972033.2    176798.44   -1795234.8   -2133521.9    67636.208    43370.389    48566.986     1915.024     10648000 
  114500     308.0348    -213.7357   -1972574.9    177314.13   -1795260.8   -2133575.8    67374.004    43132.709    48578.891    1915.2986     10648000 
  115000    308.20004   -357.63255   -1972706.7    177409.25   -1795297.5   -2133875.1    67244.171    43631.146    48387.388    1905.6363     10648000 
  115500     307.7531   -294.93012   -1972414.3    177151.97   -1795262.3   -2133645.5    67437.028    43474.817    48406.872    1912.4407     10648000 
  116000    308.37739   -250.25975   -1972810.3    177511.34   -1795298.9   -2133571.2    66768.848    43582.607    48497.341    1912.1309     10648000 
  116500    307.66306   -227.65725   -1972328.9    177100.15   -1795228.7   -2133361.6    67223.411     43406.16    48500.748    1902.4372     10648000 
  117000      307.784   -322.14753   -1972364.7    177169.76     -1795195   -2133894.2    67455.571    43726.283    48429.328    1918.3023     10648000 
  117500    307.17201   -293.37247   -1971994.5    176817.48   -1795177.1   -2133644.9    67504.496    43885.654    48346.139    1914.0749     10648000 
  118000    307.86863   -222.91316   -1972447.2    177218.48   -1795228.7   -2133581.4    67537.123     43340.48    48352.739    1903.8777     10648000 
  118500    308.98986   -265.53299   -1973103.8    177863.89   -1795239.9   -2134096.1    67205.923    43327.369    48535.606    1923.4304     10648000 
  119000    307.78658   -274.49325   -1972367.1    177171.25   -1795195.8   -2133977.7     67447.38    43583.016    48683.088     1897.162     10648000 
  119500    308.71702   -294.30048     -1972917    177706.84   -1795210.1   -2134159.3    66991.988    43560.971    48770.499     1918.857     10648000 
  120000    308.19604   -237.04872   -1972567.1    177406.94   -1795160.2   -2133853.1    67018.816    43596.088    48731.526    1939.5466     10648000 
  120500    308.28218   -245.57738   -1972608.6    177456.53   -1795152.1   -2133946.8    67320.923    43698.768    48411.856    1906.6149     10648000 
  121000     308.3226   -266.91701   -1972656.2     177479.8   -1795176.4   -2134137.3    67264.809    43681.896     48605.33    1929.0194     10648000 
  121500    308.72496    -239.0166   -1972917.6     177711.4   -1795206.2   -2134244.5    67106.455    43429.689      48863.5    1927.2137     10648000 
  122000    308.04942   -289.48843   -1972463.4    177322.54   -1795140.8   -2134229.7    67347.113    43679.788    48828.204    1911.1881     10648000 
  122500     309.2775   -256.01099   -1973202.7    178029.47   -1795173.2   -2134476.7    67204.908    43481.981    48650.312    1936.7487     10648000 
  123000    303.73402   -254.55839   -1975989.4    174838.47   -1801150.9   -2135035.3        66241    42935.678    47969.761    1899.4579     10648000 
  123500    303.15771   -259.65874     -1975600    174506.73   -1801093.2   -2134972.2    66365.234    43002.984    48126.767    1877.2632     10648000 
  124000    303.83683     -278.522   -1975970.4    174897.65   -1801072.7   -2135106.4    66463.292    42818.519    47964.609    1889.6013     10648000 
  124500    303.63541   -266.60142   -1975924.6    174781.71   -1801142.9     -2135090    66174.548    42908.656    48163.116    1919.1344     10648000 
  125000    304.26581   -250.64282   -1976271.8    175144.58   -1801127.2   -2135344.5    66104.237    42876.755    48177.873    1913.8013     10648000 
  125500    304.52933   -317.14379   -1976465.9    175296.27   -1801169.6   -2135403.8    66017.959    42927.854    48112.832     1879.243     10648000 
  126000    303.65718   -274.57033   -1975885.2    174794.24     -1801091   -2135050.6    66317.942     42923.47    48035.239    1888.7019     10648000 
  126500    303.99106   -304.27204   -1976099.9    174986.43   -1801113.5   -2135121.7    66225.253    42963.609    47928.371    1904.5224     10648000 
  127000    304.63847   -323.62513   -1976495.5     175359.1   -1801136.4   -2135389.9    66240.466    42491.517    48264.311    1898.1823     10648000 
  127500    304.39477   -260.98169   -1976251.8    175218.82     -1801033   -2135549.1    66491.649    42912.859    47998.897    1893.8475     10648000 
  128000    303.42685   -293.42238   -1975734.3    174661.66   -1801072.7   -2135019.1    66253.827     42947.95    48168.636     1914.322     10648000 
  128500     304.4609   -211.62663   -1976322.3    175256.89   -1801065.4   -2135491.4    66224.645    42925.734    48141.245    1877.4663     10648000 
  129000    304.71978   -328.54047     -1976441     175405.9   -1801035.1   -2135468.5    66406.477    42824.286    47918.028    1878.6978     10648000 
  129500    303.82996   -281.04436   -1975954.5     174893.7   -1801060.8   -2135378.2    66336.667    42880.245    48286.522    1920.2781     10648000 
  130000    304.30815   -201.65435   -1976165.5    175168.96   -1800996.5   -2135766.5    66414.878    43019.288    48268.107    1898.7745     10648000 
  130500     305.0111   -272.82944   -1976584.4     175573.6   -1801010.8   -2135611.6    66268.688    42778.824    48098.435    1881.2478     10648000 
  131000    304.15704   -289.20476   -1976105.5    175081.97   -1801023.5   -2135290.6    66167.409     42983.94    48142.373    1891.3917     10648000 
  131500    303.94783   -214.84606   -1975892.7    174961.55   -1800931.2   -2135313.3    66311.786    43088.165    48115.687    1904.9725     10648000 
  132000     304.3432   -255.93351   -1976130.7    175189.13   -1800941.6   -2135452.6    66306.709    43211.974     47915.86    1887.4058     10648000 
  132500    304.49827   -234.95479   -1976214.5     175278.4   -1800936.1   -2135607.5    66590.647    42905.795    48009.294    1887.2894     10648000 
  133000    304.68385   -246.39189     -1976368    175385.22   -1800982.8   -2135547.5    66206.846     42938.57    48149.812    1884.3406     10648000 
  133500    304.32494   -251.76815   -1976078.7    175178.62   -1800900.1   -2135737.6    66406.797    43038.697    48303.072    1910.3982     10648000 
  134000    304.54277   -255.71283   -1976202.7    175304.01   -1800898.7     -2135959    66599.256    42992.074    48235.714     1929.281     10648000 
  134500     303.9385   -307.27565   -1975828.6    174956.18   -1800872.4   -2135810.6    66609.676    43282.198    48177.574    1912.6025     10648000 
  135000     305.6454   -321.13321   -1976880.3    175938.72   -1800941.6   -2136090.2    66598.205    42817.927    47905.596    1888.0963     10648000 
  135500    303.97177    -268.1043   -1975810.7    174975.33   -1800835.4   -2135860.1    66544.393     43186.51    48412.148    1906.2857     10648000 
  136000    304.70754   -291.76799     -1976255    175398.86   -1800856.1   -2136121.5    66706.174    43080.094      48190.3    1889.9687     10648000 
  136500    304.94562    -263.3183   -1976454.7    175535.91   -1800918.8   -2135791.8     66386.97    42839.132    48219.534    1891.4914     10648000 
  137000    305.48093   -185.49789   -1976756.6    175844.04   -1800912.6   -2135544.8    66288.194    42749.412    47841.218    1909.3782     10648000 
  137500    305.42605    -308.2252   -1976697.1    175812.45   -1800884.6   -2135995.1    66409.607    42960.763    48034.096    1893.5657     10648000 
  138000    304.49112   -246.93116   -1976107.8    175274.28   -1800833.5   -2135858.9    66715.444    42980.305     48159.92    1895.4803     10648000 
  138500    304.90399    -302.3448   -1976348.6    175511.94   -1800836.6   -2136205.1    66774.444    43183.116    47995.525    1903.4021     10648000 
  139000    305.60991    -246.1619   -1976757.7    175918.29   -1800839.4   -2136407.7    66545.405    43231.288    47982.716    1890.5539     10648000 
  139500    304.41033   -226.45415   -1976008.7    175227.78   -1800780.9   -2135719.3    66357.178    42881.688     48557.82    1913.9944     10648000 
  140000    304.84886   -291.87528   -1976277.4     175480.2   -1800797.2   -2136347.8      66661.5    43169.581    48342.934    1896.3499     10648000 
  140500    304.88594   -273.51881   -1976234.1    175501.55   -1800732.6   -2136419.8    67093.929    43035.649    48158.474    1897.6421     10648000 
  141000    305.11738   -302.37368   -1976410.3    175634.77   -1800775.5   -2136142.6    66502.276    43189.517    48126.495    1914.0371     10648000 
  141500    305.05995   -291.93091     -1976393    175601.72   -1800791.3   -2136359.8    66640.085    42988.101    48424.792     1913.806     10648000 
  142000    304.37937   -296.16413   -1975886.2    175209.96   -1800676.2   -2136012.6    67087.048    43008.564    48131.487    1899.3056     10648000 
  142500     304.9206   -282.49118     -1976245    175521.51   -1800723.5   -2136103.4    66759.757    42925.804    48267.432     1905.364     10648000 
  143000    304.92924   -258.29338   -1976192.8    175526.48   -1800666.3   -2136218.7    66630.259    43223.548    48261.934    1910.1491     10648000 
  143500    305.26067   -275.77367   -1976416.9    175717.26   -1800699.6   -2136301.9    66482.243    43205.755    48288.329    1908.6749     10648000 
  144000    305.41411   -285.95951   -1976491.3    175805.58   -1800685.8   -2136113.5    66806.499    43167.956    47756.095    1891.6533     10648000 
  144500    305.47855   -293.39287   -1976539.5    175842.67   -1800696.8   -2136548.4    66668.278    43457.288    47980.821    1902.5349     10648000 
  145000    305.64129   -271.99726     -1976651    175936.35   -1800714.6   -2136287.4    66683.989    43056.219      48000.5    1895.7301     10648000 
  145500    305.60329   -252.43503   -1976665.5    175914.48     -1800751   -2136555.9    66443.436     43383.54    48164.111    1899.2941     10648000 
  146000    304.86723   -288.78596   -1976164.8    175490.78     -1800674   -2136411.4    67088.147     43241.89    48012.679    1903.9151     10648000 
  146500    305.88607   -220.68801   -1976774.2    176077.26   -1800696.9   -2136516.6    66438.835    42924.226    48454.136    1925.2429     10648000 
  147000    305.70023   -228.58031   -1976693.3    175970.28     -1800723   -2136675.8    66596.893    43223.101    48239.479    1922.9861     10648000 
  147500    305.57822   -281.81525   -1976537.3    175900.05   -1800637.2   -2136696.3    66993.121    43140.693    48122.732    1902.4921     10648000 
  148000    305.21109   -307.56942   -1976356.6    175688.72   -1800667.9     -2136748    66930.991    43306.295    48271.188    1882.9533     10648000 
  148500    305.80961   -232.74409   -1976724.8    176033.25   -1800691.6     -2136724    66508.636    43333.662    48239.678    1917.2564     10648000 
  149000    304.93902   -263.13053   -1976096.7     175532.1   -1800564.6   -2136661.4    67174.133    43063.936    48416.239    1910.4108     10648000 
  149500    304.76619   -314.90317   -1976021.1    175432.62   -1800588.4     -2136266    67163.166    43085.604    48088.115    1908.0331     10648000 
  150000    305.57485   -255.91543   -1976501.3    175898.11   -1800603.2   -2136536.5    66740.613    42919.971    48456.738    1917.8829     10648000 
  150500    305.39801   -293.29101   -1976440.6    175796.31   -1800644.3   -2136658.3    66735.755    43293.619    48274.656    1913.6391     10648000 
  151000     305.9381   -273.39103   -1976709.9    176107.21   -1800602.7   -2137023.6    66886.835    43210.096     48302.43    1914.4041     10648000 
  151500    306.47601   -265.10711   -1977005.4    176416.85   -1800588.6   -2136683.1    66874.006    42868.764     48048.28    1886.5946     10648000 
  152000    305.79783   -319.10086     -1976637    176026.46   -1800610.5   -2136496.9    66677.652    43204.295    48088.609    1889.3964     10648000 
  152500    305.39801   -260.60382   -1976383.9    175796.31   -1800587.6   -2136415.9    66810.893    43187.245    48122.711    1911.1787     10648000 
  153000    305.14764   -300.52333   -1976198.4     175652.2   -1800546.2   -2136201.6    66612.038    43058.551    48413.211    1919.3925     10648000 
  153500    305.52102    -256.7637   -1976451.5    175867.12   -1800584.4   -2136306.2    66491.041     43183.71    48270.322    1909.6591     10648000 
  154000    305.73503     -278.015   -1976547.6    175990.31   -1800557.3     -2136412     66563.48    43168.764     48237.53    1894.6281     10648000 
  154500    305.38961   -278.62582     -1976283    175791.48   -1800491.5   -2136661.2    66770.375    43567.735     48153.09    1887.0581     10648000 
  155000    306.08621   -282.46073   -1976719.9    176192.46   -1800527.5   -2136689.1    66577.441    43391.029    48102.084    1898.5845     10648000 
  155500    306.85752   -271.41918   -1977133.9    176636.45   -1800497.5   -2136833.8    66621.844    43247.995    47925.878    1904.1049     10648000 
  156000    305.45054   -306.76854   -1976290.6    175826.55   -1800464.1   -2136552.3    66929.543    43201.629    48220.742    1909.7231     10648000 
  156500    304.97961   -298.11342   -1976005.6    175555.47   -1800450.1   -2136461.7    67158.665    43399.919    47995.049    1902.4557     10648000 
  157000    306.23185   -262.98839   -1976766.4     176276.3   -1800490.1   -2136886.4    66716.884    43239.486    48244.086    1919.6047     10648000 
  157500    305.42233   -231.38967   -1976288.4    175810.31     -1800478   -2136671.7    66895.119    43367.831    48225.155     1895.192     10648000 
  158000    306.56712   -275.71067   -1976902.3    176469.29     -1800433     -2136953    66848.467    43385.815      47930.8    1885.5945     10648000 
  158500    306.42565   -276.48101   -1976776.2    176387.86   -1800388.3   -2136921.5    67093.471    43008.839    48151.918    1891.1257     10648000 
  159000    305.85028   -232.12869   -1976395.7    176056.66   -1800339.1     -2136753    67103.171    43254.873     48120.86    1878.3379     10648000 
  159500    306.49742   -239.63433   -1976864.6    176429.17   -1800435.4   -2137022.1    66701.911    43279.872    48262.663    1913.0243     10648000 
  160000    306.27048    -240.9751   -1976703.5    176298.53     -1800405   -2136791.1    66781.842    43182.649    48224.053    1899.1015     10648000 
  160500    305.88268   -264.84906   -1976490.8    176075.31   -1800415.5     -2136863    66772.367    43334.083    48362.557    1903.1956     10648000 
  161000    305.79353   -283.73097   -1976372.1    176023.99   -1800348.2   -2136871.9    67073.894    43235.011    48280.511    1910.3097     10648000 
  161500    306.00703   -220.64057     -1976548    176146.89   -1800401.1   -2136901.5    66885.516    43275.279    48298.971    1893.8189     10648000 
  162000     306.0353   -279.99435   -1976525.6    176163.16   -1800362.4   -2137040.7    67235.503    43147.286    48223.875    1908.4577     10648000 
  162500    306.23356   -281.17343   -1976599.9    176277.28   -1800322.6   -2137165.8    66979.178    43434.001    48231.244    1921.4399     10648000 
  163000    306.00942   -303.06522   -1976532.6    176148.26   -1800384.4   -2136618.3    67084.496    42980.799    48099.411    1920.9949     10648000 
  163500    306.11313   -211.47128     -1976540    176207.96     -1800332   -2136800.1    66683.538    43231.742    48408.878      1935.98     10648000 
  164000    306.18895   -252.64183   -1976568.6    176251.61     -1800317   -2136974.1    66658.932    43471.167     48353.79    1921.5812     10648000 
  164500    305.98734   -320.66188   -1976428.1    176135.55   -1800292.5   -2136879.8    67222.732    43124.441    48198.646    1905.9224     10648000 
  165000    306.47973   -264.45883   -1976769.9    176418.98     -1800351   -2137047.7    66846.318    43458.384    48063.615    1909.4211     10648000 
  165500    306.28983   -272.35044   -1976568.3    176309.68   -1800258.6   -2137103.7    67131.033    43239.847    48258.459    1906.0751     10648000 
  166000    306.64881   -228.91475   -1976791.4    176516.31   -1800275.1   -2137047.7    66554.917    43448.795    48347.799    1904.7142     10648000 
  166500    306.90804   -224.27227   -1976915.2    176665.53   -1800249.7   -2136895.3    66926.276    42969.003    48187.901    1896.8956     10648000 
  167000    306.77642   -293.63165   -1976823.3    176589.77   -1800233.6     -2137193    67050.197    43313.529    48116.292    1889.5996     10648000 
  167500    306.79205   -282.66958   -1976802.3    176598.77   -1800203.5   -2137103.7     67055.37    42986.935    48358.829    1900.2596     10648000 
  168000    306.15908   -258.98073   -1976418.2    176234.41   -1800183.8   -2136864.4    67023.014    43158.908    48367.184    1897.0654     10648000 
  168500    306.44263   -261.39128   -1976564.5    176397.63   -1800166.9   -2136858.2    66981.327    43230.332        48181    1901.0689     10648000 
  169000    306.64752   -232.90608   -1976669.7    176515.57   -1800154.1   -2136637.3    66537.535    43289.392    48225.902    1914.8012     10648000 
  169500    307.78982   -260.84372   -1977415.1    177173.11     -1800242   -2136990.3    66596.757    43065.334    48012.786    1900.3397     10648000 
  170000     306.8048   -295.25681   -1976773.7     176606.1   -1800167.6   -2137176.3    66753.569    43347.984    48377.031    1924.0122     10648000 
  170500    306.20925   -281.29333   -1976390.8    176263.29   -1800127.5     -2136881    66967.214    43220.588     48407.54    1894.7771     10648000 
  171000    306.35079   -286.63221   -1976446.6    176344.77   -1800101.8   -2136946.7    67049.594    43200.352    48344.231    1905.9044     10648000 
  171500    306.79658   -298.97742   -1976717.4    176601.37     -1800116   -2137065.3    67006.243     43155.68    48280.636    1905.3516     10648000 
  172000    305.02865   -351.01307   -1975605.7     175583.7     -1800022   -2137027.3    67283.718    43645.986    48584.879    1906.9643     10648000 
  172500    307.76596   -225.19259   -1977288.9    177159.38   -1800129.5   -2137238.1    66568.147    43224.465     48263.53    1893.0273     10648000 
  173000    306.78866   -277.20845   -1976682.4    176596.82   -1800085.5   -2137363.3     67104.53    43317.696    48374.132    1884.6257     10648000 
  173500    307.44125   -317.62868   -1977073.6    176972.47   -1800101.2   -2137088.2    66823.943    43199.145    48097.834    1893.6752     10648000 
  174000    306.78174   -272.78024   -1976697.6    176592.83   -1800104.8   -2137360.4    67079.316    43472.905    48214.815    1895.7563     10648000 
  174500    307.17896   -229.75447   -1976951.1    176821.48   -1800129.6   -2137382.5    66901.621    43378.295     48255.17    1896.3089     10648000 
  175000    307.03711   -231.30803   -1976818.5    176739.83   -1800078.7   -2137402.2    66744.327    43248.809    48676.402    1914.1335     10648000 
  175500    306.66928   -309.71739     -1976595     176528.1   -1800066.9   -2137361.7      67025.2    43555.052    48265.092    1921.3374     10648000 
  176000    306.76886   -305.50057   -1976631.7    176585.42   -1800046.3   -2137329.3    67054.273    43473.661    48259.446    1910.1716     10648000 
  176500    307.26569   -242.42901   -1976943.4    176871.41     -1800072   -2137193.3    66758.299    43455.573    48127.311    1908.6824     10648000 
  177000    306.84265   -233.50773   -1976672.8    176627.89   -1800044.9   -2137116.3    67065.178    43171.353    48302.057      1904.88     10648000 
  177500    307.27126   -280.93439   -1976937.7    176874.61   -1800063.1   -2137176.8    66834.098    43230.934    48262.511    1911.5341     10648000 
  178000    306.63827   -279.03712   -1976532.2    176510.24     -1800022   -2137333.7    67127.111    43186.898    48571.961    1915.4829     10648000 
  178500    307.43626   -229.62675   -1977011.1    176969.59   -1800041.6   -2137364.1    66700.612    43220.213    48506.046    1926.0601     10648000 
  179000    307.12516    -277.7528   -1976774.7    176790.52   -1799984.2   -2137737.2    67334.262    43331.485    48379.419    1917.3429     10648000 
  179500    307.12641   -246.69642     -1976777    176791.23   -1799985.8   -2137451.2     67092.11    43484.331     48206.13    1891.6002     10648000 
  180000     307.3178   -284.53601   -1976909.8     176901.4   -1800008.4     -2137569     67012.29    43454.415    48302.716    1889.8074     10648000 
  180500    306.84389   -265.38941   -1976604.9    176628.61   -1799976.3   -2137697.8    67240.011    43496.957    48444.752    1911.1671     10648000 
  181000    307.89664   -301.64589   -1977241.3     177234.6   -1800006.7   -2137580.6    66827.406    43382.176    48224.642    1905.0779     10648000 
  181500    306.73778   -272.31468   -1976538.7    176567.53   -1799971.2   -2137477.9    66891.461    43904.006    48233.522    1910.1727     10648000 
  182000    306.73126   -300.31845   -1976484.2    176563.78   -1799920.4   -2137358.3    67037.904    43494.277    48425.166    1916.7358     10648000 
  182500    306.94276   -274.07872   -1976542.8    176685.52   -1799857.3     -2137398    67253.603     43537.31    48155.937    1908.3105     10648000 
  183000    308.30424   -237.16503   -1977411.1    177469.23   -1799941.9   -2137650.7      66834.2    43553.564    47957.362    1894.4368     10648000 
  183500     307.7197   -251.34109   -1977038.4    177132.75   -1799905.6   -2137209.8    66700.568    43344.677    48217.489    1908.6257     10648000 
  184000    307.25541   -256.51665   -1976724.1    176865.49   -1799858.6   -2137722.3    67117.428    43552.138    48432.962    1895.6935     10648000 
  184500    307.57007   -278.36991   -1976942.8    177046.62   -1799896.2   -2137538.5    66908.273    43563.203    48216.291    1907.9231     10648000 
  185000    308.26698   -265.84305   -1977377.9    177447.78   -1799930.1   -2137765.7    66726.303     43384.19    48356.547    1920.7426     10648000 
  185500    307.65141   -292.02194   -1976920.1    177093.44   -1799826.7   -2137692.4    67188.115    43373.692     48303.04    1907.4482     10648000 
  186000    307.65944   -275.35926   -1976997.2    177098.06   -1799899.1   -2137669.4    66794.118    43724.713    48250.624     1902.822     10648000 
  186500    307.55085   -308.97451     -1976861    177035.55   -1799825.4   -2138002.9    67052.599    43524.048    48639.271    1926.0074     10648000 
  187000    307.42792    -233.3342   -1976820.8    176964.79     -1799856   -2137641.8    67088.697    43501.143    48329.716    1901.5134     10648000 
  187500    307.10782   -243.44393   -1976636.3    176780.53   -1799855.8   -2137652.1    66901.123    43724.867     48465.03    1924.7886     10648000 
  188000    307.31685    -292.2417   -1976721.4    176900.86   -1799820.6   -2137817.5    67116.392    43481.843     48572.96    1924.8679     10648000 
  188500    307.49019    -270.4759     -1976837    177000.64   -1799836.4   -2137923.5    67213.082    43477.524    48483.015    1912.8245     10648000 
  189000    308.49827   -211.10165     -1977432    177580.92     -1799851   -2138284.3    67015.302    43483.628    48421.546    1931.8713     10648000 
  189500     307.7854   -337.33476   -1976951.4    177170.57   -1799780.8   -2137762.5    67196.101    43464.255     48255.44    1895.2772     10648000 
  190000    307.55628   -234.97567   -1976840.6    177038.68   -1799801.9     -2137683     67175.16    43287.464     48480.68    1899.0748     10648000 
  190500     307.3956   -224.64513   -1976723.7    176946.19   -1799777.5   -2137759.8    67226.653    43271.376     48613.59    1924.4531     10648000 
  191000      307.771   -254.65354   -1976904.9    177162.28   -1799742.6   -2137547.2    66969.428    43413.423    48334.338    1925.1557     10648000 
  191500    307.62734   -350.21319   -1976846.7    177079.59   -1799767.1   -2138064.7    67254.721    43630.616    48405.407     1927.296     10648000 
  192000    308.31733    -243.0742     -1977219    177476.76   -1799742.2   -2138383.5    67100.982    43484.577    48649.629    1929.3433     10648000 
  192500    307.55902   -256.10354   -1976794.4    177040.26   -1799754.1   -2137830.9    67235.379    43402.062    48496.409    1902.6172     10648000 
  193000    307.73799   -322.21387   -1976822.3    177143.28     -1799679   -2138018.7    67314.089    43553.694    48418.534    1910.1122     10648000 
  193500    307.40921   -298.68922   -1976651.8    176954.02   -1799697.8   -2137670.5    67076.103    43770.741    48255.483    1916.3697     10648000 
  194000    308.55987    -212.3588   -1977252.1    177616.38   -1799635.7     -2138123    67593.956     43388.65    47982.993     1905.291     10648000 
  194500    308.62022   -226.79382   -1977363.6    177651.12   -1799712.5   -2138217.1      67047.8    43689.744    48215.492    1900.4454     10648000 
  195000    307.73267   -289.18471   -1976802.5    177140.21   -1799662.3   -2137890.8    67392.774    43441.416    48326.543     1927.524     10648000 
  195500    308.17544   -307.02392   -1977131.8    177395.09   -1799736.7   -2138142.5    67365.758     43228.75    48493.121    1923.0551     10648000 
  196000    308.27576   -253.16151   -1977178.7    177452.84   -1799725.9   -2137873.8    67235.241    43190.267    48351.101    1918.4904     10648000 
  196500    308.32001   -237.28819   -1977154.3    177478.31     -1799676   -2138163.1    67231.974    43398.351    48470.997    1907.4781     10648000 
  197000    307.02207   -258.92056   -1976330.3    176731.17   -1799599.2   -2138115.3    67714.969    43553.699    48603.391      1912.97     10648000 
  197500     307.8853   -291.03992   -1976847.1    177228.07     -1799619     -2138167    67764.403    43199.809     48448.43     1907.245     10648000 
  198000    308.00722   -268.00115     -1976931    177298.25   -1799632.7   -2138125.3    67491.995    43519.498    48271.265    1911.6054     10648000 
  198500    307.33437   -291.34479   -1976513.6    176910.94   -1799602.7   -2137999.1    67351.725    43651.315     48552.81    1929.6989     10648000 
  199000    307.92541   -264.10261   -1976847.1    177251.16     -1799596   -2138177.5    67361.057      43741.7    48304.343    1923.3172     10648000 
  199500    308.13646    -286.9495   -1976972.2    177372.65   -1799599.5   -2138601.2    67537.681    43504.171    48663.568    1923.6114     10648000 
  200000    307.98591   -269.04105     -1976879    177285.99     -1799593   -2138036.5    67401.727    43329.216    48489.812    1936.7892     10648000 
  200500    308.12159    -176.8181     -1976947    177364.09   -1799582.9   -2138083.1    67137.601    43531.558     48540.38    1926.5876     10648000 
  201000    308.36919   -311.36015   -1977068.4    177506.62   -1799561.8   -2138480.6    67499.734    43432.792    48547.613    1932.0947     10648000 
  201500     308.5815   -308.46578     -1977148    177628.83   -1799519.2   -2138634.6    67344.974    43660.812    48560.423    1920.3248     10648000 
  202000    307.81372    -310.9159   -1976688.5    177186.87   -1799501.7   -2138105.4    67619.624    43534.561    48343.611    1919.0544     10648000 
  202500    309.12872   -253.04126   -1977494.5    177943.83   -1799550.7   -2138176.5    67160.438    43319.705    48297.424    1904.4476     10648000 
  203000    308.37494   -270.77721   -1977019.7    177509.92   -1799509.8   -2138256.7    67437.781    43430.039    48459.402    1909.7637     10648000 
  203500    308.02769   -258.23701   -1976766.8    177310.04   -1799456.7   -2138670.2    67801.021    43478.188    48703.276    1920.9585     10648000 
  204000    308.72393   -296.90148   -1977197.5    177710.81   -1799486.7   -2138440.1    67147.122    43494.724    48681.703    1919.0329     10648000 
  204500    308.75649   -258.34479   -1977209.4    177729.56   -1799479.8   -2138461.3    67191.297    43740.636    48415.724    1904.2909     10648000 
  205000    308.34032   -280.58347   -1976971.5       177490   -1799481.5   -2138269.9    67453.877    43685.073    48236.401    1923.0619     10648000 
  205500    308.63259   -313.18213   -1977101.2    177658.24     -1799443   -2138784.7    67535.462    43827.351     48397.23    1923.4658     10648000 
  206000    309.21558   -330.44867   -1977487.2    177993.82   -1799493.4   -2138453.8     67305.96    43522.212    48247.321    1891.1003     10648000 
  206500    308.78229   -219.34445   -1977172.8    177744.41   -1799428.4   -2138205.8    67242.246    43561.994    48324.721    1904.0129     10648000 
  207000    308.72837    -195.8744   -1977119.6    177713.37   -1799406.3   -2137920.9    67204.311    43462.048    48228.816    1906.0853     10648000 
  207500    308.87385   -205.19321   -1977175.1    177797.11     -1799378     -2138254    67491.311    43443.265     48248.71     1895.645     10648000 
  208000    308.73769   -306.91714   -1977110.9    177718.74   -1799392.1   -2138144.6    67356.387     43658.25    48124.631    1894.4944     10648000 
  208500    309.16505   -280.25036     -1977332    177964.74   -1799367.3     -2138458     67216.54    43627.127    48369.494    1912.8343     10648000 
  209000    308.59758   -328.55321   -1977017.2    177638.08   -1799379.2   -2138415.7    67341.409    43365.899    48767.351    1923.8192     10648000 
  209500    308.34624   -266.61172   -1976859.2    177493.41   -1799365.7   -2138524.3     67289.57    43735.149    48707.066    1933.3501     10648000 
  210000    303.79141    -285.3341   -1980248.4    174871.51   -1805376.9     -2139524    66274.923    42968.828    48134.118    1897.7408     10648000 
  210500    303.97642   -292.64635     -1980349       174978     -1805371   -2139162.3     66091.39    42981.979    47854.694    1885.1994     10648000 
  211000    303.38313   -262.98677   -1979930.5    174636.49     -1805294   -2139589.1    66617.269    43198.122    47947.876    1895.3468     10648000 
  211500    303.57712   -284.17607   -1980021.3    174748.15   -1805273.1   -2139504.9    66667.323    42952.226    47983.061    1881.0598     10648000 
  212000    303.87227   -281.67775   -1980271.4    174918.05   -1805353.3   -2139454.4    66265.429    43215.664    47821.073    1880.8437     10648000 
  212500    303.90222   -288.55874   -1980240.8    174935.29   -1805305.6   -2139133.2    66640.878    42687.127    47685.199    1879.1277     10648000 
  213000    302.87596   -293.04112     -1979605    174344.55   -1805260.5   -2139279.4    66337.251    43272.306    48157.615    1907.2504     10648000 
  213500    303.25747   -272.12882   -1979801.9    174564.16   -1805237.7   -2139461.3     66778.92    43027.315    47970.541      1882.62     10648000 
  214000    304.75124   -270.76347   -1980667.1    175424.02     -1805243   -2139599.7    66252.075    42889.745    47897.138    1893.7064     10648000 
  214500    303.78196    -237.3457   -1980081.8    174866.07   -1805215.7   -2139559.1    66408.385    43158.462    48032.603    1877.8352     10648000 
  215000    304.25076   -238.20468   -1980411.4    175135.92   -1805275.5   -2139853.5    66078.503    43096.988    48359.252    1907.3263     10648000 
  215500    304.71416   -250.47168   -1980626.5    175402.67   -1805223.8   -2139758.8    66406.295    42834.011    48002.201    1889.8649     10648000 
  216000    304.17253    -263.1098   -1980224.9    175090.89     -1805134   -2139717.3    66639.812    42818.275    48127.888     1906.413     10648000 
  216500    304.48027   -272.64483     -1980419    175268.04     -1805151   -2139860.1    66724.675    42969.035    47862.866    1884.5115     10648000 
  217000    303.74629   -279.98833   -1980001.7    174845.53   -1805156.2   -2139603.6     66636.87    43080.996     47989.18    1894.8116     10648000 
  217500    303.89573   -247.17021   -1980090.6    174931.56   -1805159.1   -2139755.3    66582.735    43105.959    48072.136    1903.8347     10648000 
  218000    304.36151    -239.7441     -1980412    175199.68   -1805212.3     -2139581     66490.34    42977.509    47816.424    1884.7303     10648000 
  218500    304.57112   -238.64542   -1980450.8    175320.33   -1805130.4   -2139660.9    66303.979    43164.978    47849.657    1891.5554     10648000 
  219000    304.32708   -246.96422     -1980290    175179.85   -1805110.2   -2139780.5    66451.934    42965.854    48178.471    1894.2647     10648000 
  219500    303.68581   -276.69585   -1979951.4    174810.72   -1805140.7   -2139832.6    66334.653    43301.792    48330.775    1913.9203     10648000 
  220000    304.34741   -270.07314   -1980253.5    175191.56     -1805062     -2139598    66434.796    43304.652     47729.43    1875.5905     10648000 
  220500    304.73184   -291.48555   -1980481.1    175412.85   -1805068.2   -2140061.7    66637.772    42989.939    48053.759    1899.1521     10648000 
  221000    304.27075   -242.59649   -1980212.5    175147.43   -1805065.1   -2139738.7    66400.442    43218.262    48011.966    1895.4684     10648000 
  221500    304.15829   -267.49699   -1980136.7    175082.69     -1805054   -2139864.5    66675.983    43123.552      48016.8    1911.4515     10648000 
  222000    304.61939   -261.26666     -1980379    175348.12   -1805030.9   -2139727.6    66549.313    43045.538    47866.135    1887.5668     10648000 
  222500    304.15158   -252.06548   -1980085.7    175078.83   -1805006.9   -2139709.1     66962.12    43044.012    47727.706    1889.4905     10648000 
  223000    303.92454   -285.85299   -1980021.6    174948.14   -1805073.5     -2139475    66739.454    42939.258    47886.592    1888.1284     10648000 
  223500    304.62071   -314.65806   -1980396.7    175348.88   -1805047.8   -2139919.5    66783.367     42852.54    47982.946    1903.9854     10648000 
  224000    304.28166   -287.18753   -1980180.1    175153.71   -1805026.4   -2139679.1    66635.247    42994.404    47971.037    1898.2904     10648000 
  224500    303.96689   -290.48491   -1979975.3    174972.52   -1805002.7   -2139626.8     66713.46     43046.27     47997.25    1894.5456     10648000 
  225000    305.02028   -281.80527   -1980605.8    175578.88   -1805026.9   -2139981.4    66589.982    42941.668    47957.862     1886.083     10648000 
  225500    304.25419   -257.30275   -1980134.4     175137.9   -1804996.5   -2139047.1    66567.279    42795.437    47682.428    1867.4898     10648000 
  226000    304.63859   -249.63861   -1980333.2    175359.17     -1804974     -2139839    66646.174    43035.665    47929.738    1894.2629     10648000 
  226500    304.40264   -255.67494   -1980180.1    175223.35   -1804956.8   -2139754.6    66582.886     42865.74    48229.656    1896.1646     10648000 
  227000    304.10331   -302.37287   -1979985.2    175051.04   -1804934.1     -2139683    66916.995    42873.919    47996.937    1909.9637     10648000 
  227500     304.6344   -321.59939   -1980284.7    175356.76   -1804927.9   -2139549.3    66827.607    42911.098    47640.161    1885.7415     10648000 
  228000    304.07139   -275.41103   -1979941.2    175032.67   -1804908.6   -2139927.4     66781.26    43274.112     48021.68    1909.0727     10648000 
  228500    304.48044   -333.73325   -1980257.5    175268.14   -1804989.4   -2139775.3    66449.524    43160.191    48003.726    1904.3286     10648000 
  229000    304.56589    -219.4499   -1980241.4    175317.32     -1804924   -2139633.4     66605.07    43202.508    47705.729    1878.7308     10648000 
  229500    304.93918   -277.75578   -1980444.8     175532.2   -1804912.6   -2139967.8    66682.537    43146.075     47790.36    1904.0144     10648000 
  230000     305.2594    -276.9432   -1980668.4    175716.53   -1804951.8   -2140094.1     66552.67    42821.273    48152.719    1899.1195     10648000 
  230500    304.06581   -231.43203   -1979869.8    175029.46   -1804840.4   -2139908.3    66702.434    43040.126    48385.059    1910.8721     10648000 
  231000    305.19578   -301.22858   -1980568.6    175679.91   -1804888.7   -2140450.3    66646.564    43083.039    48241.697    1910.4819     10648000 
  231500    305.24688   -316.16939   -1980561.1    175709.32   -1804851.8   -2140299.9    66773.387     43066.06    47999.586    1899.6847     10648000 
  232000    304.06357    -371.3507   -1979854.5    175028.17   -1804826.3   -2140239.1    67101.919    43378.448    48004.625     1899.573     10648000 
  232500    305.22233   -281.92936   -1980547.7    175695.19   -1804852.5   -2140328.7    66603.448    43309.201    47975.422    1892.9792     10648000 
  233000    304.42509   -241.33847   -1980074.1    175236.27   -1804837.8   -2139955.9    66637.397    43140.656    48198.204    1905.5824     10648000 
  233500    304.75778   -245.60069   -1980219.1    175427.78   -1804791.3   -2139978.7    66782.908    42992.746    48085.109    1898.8747     10648000 
  234000    305.07948   -223.22951   -1980536.3    175612.96   -1804923.4   -2139882.7     66397.55    42965.656    48077.187    1905.9662     10648000 
  234500    304.39744   -281.17398   -1980096.8    175220.36   -1804876.5   -2139731.4    66570.032    43032.394    48129.882    1902.3107     10648000 
  235000    304.65427   -315.57731     -1980217     175368.2   -1804848.8   -2139967.7    66672.286    43060.512    48093.441    1924.4567     10648000 
  235500    304.75532   -280.40507   -1980250.7    175426.36   -1804824.3   -2139741.5    66486.266    43094.205    48022.487    1887.8146     10648000 
  236000    305.05744   -212.02915   -1980365.4    175600.27   -1804765.1   -2140292.7    66954.689    43065.003    48007.581    1900.0121     10648000 
  236500    304.90064   -289.95112   -1980263.6    175510.02   -1804753.5     -2140027    66512.376    43357.237    48003.424    1890.4229     10648000 
  237000    304.63315   -294.63414   -1980063.6    175356.04   -1804707.6   -2140128.9    66952.248    43057.677     48156.15    1899.1963     10648000 
  237500     304.5179    -248.7035     -1980085     175289.7   -1804795.3   -2139851.9    66766.229    43113.419    48005.497    1881.8146     10648000 
  238000    304.96473    -312.1723   -1980297.5     175546.9   -1804750.6   -2139989.9    66758.411    43011.601    48015.369    1907.0476     10648000 
  238500    304.95566   -287.11999   -1980241.3    175541.68   -1804699.7   -2140174.1    66714.755     43295.17    48021.548    1901.2484     10648000 
  239000    305.21794   -280.70806   -1980437.5    175692.66   -1804744.9     -2140081     66756.18    42938.886    48035.284    1913.0806     10648000 
  239500    305.54819   -274.39884   -1980587.5    175882.76   -1804704.7   -2140118.7    66514.154    43078.345    48023.913     1914.788     10648000 
  240000    305.26131   -262.87707   -1980412.8    175717.63   -1804695.2   -2140086.7     66789.57    42959.682    48032.158    1892.5058     10648000 
  240500    304.90491   -315.92041   -1980246.6    175512.47   -1804734.1     -2140103    66658.821    43032.975    48260.813    1903.8451     10648000 
  241000    305.15838    -267.3255   -1980325.6    175658.37   -1804667.2   -2140285.8    66690.691    43235.653    48139.242     1894.583     10648000 
  241500    304.98469   -319.48034   -1980215.3    175558.39   -1804656.9   -2140666.6    67013.581    43189.006    48333.808    1914.8727     10648000 
  242000    305.29768   -257.56807   -1980322.3    175738.56   -1804583.8   -2140452.5    66885.687    43345.535    47988.232    1910.7303     10648000 
  242500    305.44802   -313.48726   -1980428.5     175825.1   -1804603.4     -2140551    66959.784    43090.337    48179.267    1893.1224     10648000 
  243000    306.31039   -301.61328   -1981023.5    176321.51     -1804702   -2140558.3    66454.142    43282.029    47888.989    1909.6133     10648000 
  243500      305.686   -317.60743   -1980578.3    175962.09   -1804616.2   -2140326.6     66735.89    42900.498    48208.695    1903.2368     10648000 
  244000    305.55027    -201.7749   -1980478.4    175883.96   -1804594.4   -2140145.3    66570.904    43263.465    47953.497    1879.0665     10648000 
  244500    305.56058   -266.37667   -1980528.7    175889.89   -1804638.8   -2140306.1    66782.659    42745.482    48342.217    1907.0531     10648000 
  245000    305.45933   -303.83177   -1980442.2    175831.61   -1804610.6   -2140025.2    66807.098    43177.193    47706.404     1892.331     10648000 
  245500     305.6188   -266.98117   -1980459.3    175923.41   -1804535.9   -2140299.7     66595.62    43084.217    48263.185    1897.3329     10648000 
  246000     305.2914   -262.26199   -1980236.3    175734.95   -1804501.3   -2140164.5    66912.103    43064.534    48047.728    1903.8922     10648000 
  246500    305.93853   -200.76747   -1980705.6    176107.45   -1804598.2   -2140247.7     66371.35    43107.389    48144.117    1919.2457     10648000 
  247000    305.92292   -280.20547   -1980682.2    176098.47   -1804583.8   -2140152.1    66355.444    43007.409    48196.971    1910.0594     10648000 
  247500    304.88646   -293.96373   -1980021.3    175501.85   -1804519.4   -2140135.3    66788.983    43208.868    48218.277    1897.9337     10648000 
  248000    305.43136   -296.49159   -1980384.7    175815.51   -1804569.1     -2140258    66717.712    43351.209    47920.646    1883.7687     10648000 
  248500    305.65177   -236.30487   -1980464.7    175942.39   -1804522.3   -2140100.9    66656.418    43041.127    48042.813    1895.8479     10648000 
  249000    305.49603    -251.2046   -1980332.7    175852.74   -1804479.9   -2140391.8    66853.802    43226.017    48083.124    1896.2015     10648000 
  249500    305.22013    -323.8534     -1980190    175693.92   -1804496.1   -2140297.4    66838.371    43190.488    48166.637    1911.8545     10648000 
  250000    306.01432   -338.61225   -1980646.3    176151.08   -1804495.3     -2140220    66742.309    43026.604    47904.081    1900.6324     10648000 
  250500    305.57768    -243.7395   -1980369.8    175899.74     -1804470   -2140387.1    66709.752    43586.358    47848.416    1872.8463     10648000 
  251000    305.43559    -318.8817   -1980305.9    175817.94     -1804488   -2140179.5    66689.361    43302.349    47990.541    1891.3546     10648000 
  251500    304.64381   -349.11499   -1979775.1    175362.18   -1804412.9   -2140272.3    67242.524    43116.931    48242.023    1895.7259     10648000 
  252000    305.73264   -289.15655   -1980427.9    175988.94     -1804439   -2140180.5    66853.003    43114.186    47898.624     1886.723     10648000 
  252500    304.93454   -279.89662   -1979988.2    175529.53   -1804458.7     -2140049    66715.872     43111.43     48327.47    1905.9953     10648000 
  253000    306.49195    -339.2937   -1980896.2    176426.02   -1804470.2   -2140655.4    66715.223    43155.521    47997.418    1891.0086     10648000 
  253500    305.64264   -314.61604   -1980329.4    175937.13   -1804392.3   -2140509.2     66962.63    43249.607    48057.877    1909.6773     10648000 
  254000    305.61771   -255.57143   -1980313.7    175922.78   -1804390.9   -2140202.8    66745.146    43202.175    48033.621    1908.1415     10648000 
  254500    305.28462   -270.29898   -1980077.7    175731.05   -1804346.6   -2140362.8     66886.68    43292.535     48199.37     1906.534     10648000 
  255000    305.43138   -249.73507   -1980208.9    175815.52   -1804393.3   -2140277.1    66573.866    43417.869    48167.783    1908.6603     10648000 
  255500    306.30439   -242.30328   -1980675.1    176318.06   -1804357.1   -2140348.7    66635.447    43143.281    48006.395    1888.4229     10648000 
  256000    305.92062   -289.80957   -1980455.5    176097.15   -1804358.4   -2140349.6    66810.233    43048.093    48133.442    1902.2538     10648000 
  256500    305.22073    -260.6414   -1980067.8    175694.27   -1804373.5   -2140265.2    66876.074    43294.964    48118.833    1907.5509     10648000 
  257000    305.91231   -265.32001     -1980454    176092.36   -1804361.7   -2140388.7    66531.711    43275.278    48220.785    1906.8777     10648000 
  257500     306.6544   -210.49653   -1980923.9    176519.53   -1804404.4     -2140501    66334.792    43391.651    47957.242    1893.4654     10648000 
  258000    305.80024   -274.33514     -1980400    176027.85   -1804372.2   -2140132.9    66343.289    43212.448    48273.392    1903.7823     10648000 
  258500    306.01831   -243.14964   -1980504.4    176153.38     -1804351   -2140443.2    66544.654    43329.121    48154.086    1911.0018     10648000 
  259000    305.36499   -260.22879   -1980022.2    175777.31   -1804244.9     -2140018    66704.888    43194.852    48173.887    1922.0826     10648000 
  259500    305.11745   -299.16985   -1979806.7    175634.82   -1804171.9   -2139958.9    67310.845    43129.879    47815.182     1896.255     10648000 
  260000    305.36062   -287.32214   -1980044.1    175774.79   -1804269.3   -2140332.6    67005.308    43078.116    48313.526    1891.5656     10648000 
  260500    305.58944   -248.14467   -1980124.7    175906.51   -1804218.2   -2140241.9    66960.949    43413.157    47859.385    1883.6594     10648000 
  261000    306.40123   -287.52485   -1980694.4     176373.8   -1804320.6   -2140647.4    66768.788     43250.89     48027.26    1906.0807     10648000 
  261500    305.36134   -252.10567   -1980029.6    175775.21   -1804254.4   -2140297.1    67044.271    43332.704    47997.772    1892.7258     10648000 
  262000    305.85177   -315.39254   -1980314.4    176057.51   -1804256.8   -2140720.5    66858.641     43406.55    48229.223     1911.712     10648000 
  262500    306.51252   -206.42773   -1980730.4    176437.86   -1804292.6   -2140438.6    66717.212    43284.011    47804.084     1902.826     10648000 
  263000    306.41643   -256.11831   -1980632.9    176382.55   -1804250.4   -2140300.7    66550.453    43411.245    47810.104    1895.9286     10648000 
  263500    306.36804   -192.57611   -1980543.6     176354.7   -1804188.9   -2140635.6    66805.639    43176.103    48199.573    1910.7013     10648000 
  264000    306.04792   -259.78649   -1980372.4    176170.42     -1804202   -2140518.9    66534.949    43319.144    48376.862    1915.5368     10648000 
  264500    306.02799   -267.54704   -1980325.2    176158.95   -1804166.3     -2140583    66805.931    43270.703    48287.808    1893.3594     10648000 
  265000    306.22945   -271.39953   -1980473.3    176274.92   -1804198.4   -2140603.2    66772.146    43632.135    47850.386    1875.2262     10648000 
  265500    306.46736   -218.15886   -1980566.1    176411.86   -1804154.2   -2140525.7    66897.155     43287.01    47882.396    1893.0312     10648000 
  266000    306.34888   -256.46727   -1980490.9    176343.66   -1804147.2   -2140709.7    67122.027    43205.131    47990.797    1900.8795     10648000 
  266500    305.71933   -308.53187   -1980143.6    175981.28   -1804162.3   -2140785.5    66882.738    43431.259    48412.917    1914.9881     10648000 
  267000    305.99351   -264.73381   -1980249.8     176139.1   -1804110.7   -2140319.2    67217.422    43114.264    47854.763    1882.8898     10648000 
  267500    306.42943   -285.79213   -1980550.1    176390.03     -1804160     -2140542    66694.743    43405.295    47986.601    1905.2556     10648000 
  268000    306.83749   -285.41363   -1980773.7    176624.93   -1804148.8   -2140686.1    66866.094    43319.596    47843.174    1883.5552     10648000 
  268500    306.35688   -271.19507   -1980490.5    176348.27   -1804142.3   -2140374.6    66909.821    43264.711    47832.198    1877.3332     10648000 
  269000    306.27755   -237.82885   -1980412.3    176302.61   -1804109.7   -2140457.9     66938.15    43206.733    48006.507    1894.2656     10648000 
  269500    305.72464   -214.46804   -1980107.8    175984.33   -1804123.5   -2140202.7    66712.604    43424.949    48056.289    1901.0114     10648000 
  270000    306.31065   -291.48248   -1980393.3    176321.66   -1804071.6   -2140651.3    67066.869    43260.959    48040.118    1890.1039     10648000 
  270500    305.74905   -217.24139     -1980093    175998.39   -1804094.6     -2140467    67135.788    43198.007    48143.573    1896.6528     10648000 
  271000    306.26118    -218.9019     -1980357    176293.18   -1804063.8   -2140563.2    67003.538    43402.881    47919.784     1879.954     10648000 
  271500     306.4286   -234.74305   -1980404.8    176389.56   -1804015.2   -2140519.6    67121.668    43299.399    47807.856    1885.8693     10648000 
  272000    307.00236   -268.53494   -1980824.7    176719.83   -1804104.9   -2140946.1    67036.463    43058.369    48110.933    1915.6051     10648000 
  272500     307.2151   -264.17402   -1980874.4    176842.29   -1804032.2   -2140842.8    66783.312     43258.57    48023.259    1903.1678     10648000 
  273000    306.61852   -296.37775   -1980582.4    176498.87   -1804083.5   -2140751.1    66808.676    43180.241    48252.128    1927.6976     10648000 
  273500    307.12851   -255.73766   -1980853.4    176792.44   -1804060.9   -2140941.9    66611.189      43257.4    48309.467    1910.4975     10648000 
  274000    307.14106   -286.56964   -1980906.8    176799.67   -1804107.1     -2140873    66619.628    43226.127    48197.025    1923.3795     10648000 
  274500    306.51277   -227.05755   -1980435.1       176438   -1803997.1   -2140671.2    66742.978    43384.906    48205.315    1902.8484     10648000 
  275000    306.59877   -256.98944     -1980480    176487.51   -1803992.5   -2140897.8    67096.071    43285.388     48135.92    1900.4552     10648000 
  275500    306.44845   -253.99578   -1980418.6    176400.98   -1804017.6   -2141071.1      67047.5    43368.581    48320.589     1915.863     10648000 
  276000    305.53493    -268.8427   -1979789.8    175875.13   -1803914.7   -2140649.9    67073.994    43620.404    48257.743     1907.989     10648000 
  276500    307.10926   -261.26111   -1980760.8    176781.36   -1803979.5   -2140602.2    66573.008    43299.965    48077.164    1891.2442     10648000 
  277000     307.1231   -201.90957   -1980760.8    176789.33   -1803971.4   -2140761.4    66936.547    43076.223    48093.246    1894.6523     10648000 
  277500    306.66943   -280.23557   -1980552.7    176528.18   -1804024.5   -2140884.3    66982.411    43349.106    48088.422    1911.7339     10648000 
  278000    306.32604   -216.39492   -1980322.3    176330.52   -1803991.8   -2140516.5    67013.684    43316.027    47961.324    1903.1658     10648000 
  278500    306.32679   -253.55098   -1980335.7    176330.95   -1804004.7   -2140670.4    66875.996    43430.127    48128.152    1900.4689     10648000 
  279000    307.26142    -328.9483   -1980841.5    176868.95   -1803972.6   -2140869.9    67028.238    43189.014    47912.066    1899.1139     10648000 
  279500    307.17624   -259.21037   -1980707.6    176819.92   -1803887.6   -2140857.2    67290.089    43153.562    47815.718    1890.2585     10648000 
  280000    306.97977    -281.7047     -1980611    176706.82   -1803904.2   -2141042.9    67441.191    43279.229    47833.361    1878.0871     10648000 
  280500    306.95546   -246.99343   -1980558.8    176692.83     -1803866   -2140724.8    67170.301    43367.057    47734.385    1894.2436     10648000 
  281000    306.70859    -250.6862   -1980437.1    176550.72   -1803886.4   -2140961.4    67162.489    43486.794    47970.767    1904.2114     10648000 
  281500    307.30289   -279.75681   -1980779.7    176892.82   -1803886.9   -2141312.8     67239.07    43251.916    48140.094    1902.0721     10648000 
  282000    306.42188   -309.08324   -1980213.7    176385.68     -1803828   -2140965.6    67334.615    43211.519    48287.817    1917.9776     10648000 
  282500    307.00288   -315.45304   -1980590.8    176720.13   -1803870.6   -2140745.1    67232.435     43084.32    47948.269    1889.2863     10648000 
  283000    306.61877   -256.84934     -1980322    176499.02     -1803823     -2140991    67275.551    43084.271     48388.96    1920.1952     10648000 
  283500    306.71862   -250.14662   -1980356.4     176556.5   -1803799.9     -2140771    67240.725    43277.498    47978.313    1918.0135     10648000 
  284000    306.74973   -218.25419   -1980413.1     176574.4   -1803838.7   -2140896.7    66994.008    43406.654    48162.243    1920.7195     10648000 
  284500    307.17231   -301.35029   -1980643.4    176817.65   -1803825.8   -2141190.3    67159.871    43363.766     48102.54    1920.6443     10648000 
  285000    307.40884   -265.48225   -1980803.1    176953.81   -1803849.3   -2141123.5    66924.064    43361.515    48116.133    1918.7357     10648000 
  285500    306.72655   -262.06408   -1980324.2    176561.06   -1803763.2   -2141020.6    67187.645    43310.169    48285.153    1913.4398     10648000 
  286000    307.14461   -319.83743   -1980638.6    176801.71   -1803836.9     -2141075    66974.591    43331.604    48224.158    1906.0184     10648000 
  286500    307.09379    -269.3032   -1980530.6    176772.46   -1803758.2   -2140810.6    67142.171    43199.368    48035.247    1903.1947     10648000 
  287000    306.27764   -270.20528   -1979999.6    176302.66   -1803696.9   -2140529.3    67178.559     43474.56    47986.407     1890.224     10648000 
  287500    306.38025   -284.41665   -1980085.4    176361.72   -1803723.7     -2140670    67281.097    43175.889     48207.39    1920.1673     10648000 
  288000    306.80899   -300.88954   -1980271.6    176608.52   -1803663.1   -2141103.1    67353.266    43389.156    48176.937    1912.1007     10648000 
  288500    306.68964   -203.99291   -1980227.7    176539.82   -1803687.9   -2141162.9    67130.514    43430.086    48449.989    1924.5447     10648000 
  289000    307.35679   -237.44291   -1980616.5    176923.85   -1803692.6   -2141062.2    67191.524    43217.318    48134.079    1902.8032     10648000 
  289500     307.0266   -287.27538   -1980424.4    176733.78   -1803690.6   -2140942.7    67070.008    43389.009    48128.458    1930.8713     10648000 
  290000    306.56657   -193.18066   -1980105.5    176468.97   -1803636.5   -2140983.8    67453.662    43273.122    48257.826    1893.7357     10648000 
  290500    306.56131    -277.9923   -1980146.1    176465.95   -1803680.2     -2140653     66988.94    43659.231    47955.861    1902.7981     10648000 
  291000    306.92083   -314.07019   -1980391.8    176672.89   -1803718.9     -2141277    67147.241    43448.996    48371.402    1917.5745     10648000 
  291500    306.56123   -315.80871   -1980102.3     176465.9   -1803636.4   -2140932.2    67369.969    43396.514    48158.418    1905.0712     10648000 
  292000    306.96578   -215.48706   -1980430.8    176698.77   -1803732.1   -2141041.8    67094.206    43442.389    48181.212    1893.1339     10648000 
  292500    306.71801   -289.69726   -1980251.6    176556.15   -1803695.4   -2141209.9     67581.76    43395.664    48084.862    1896.0919     10648000 
  293000    307.05521   -245.39156   -1980395.6    176750.25   -1803645.3   -2141280.6    67330.761     43673.01    47979.111    1902.1698     10648000 
  293500    307.35256   -275.24171   -1980564.8    176921.41   -1803643.3   -2140800.4    67356.019     43054.51    47929.744    1895.3636     10648000 
  294000    307.07129   -290.31413   -1980400.8    176759.51   -1803641.3     -2140852    66943.363    43395.953    48208.474     1903.433     10648000 
  294500    307.52366   -199.65299   -1980645.6     177019.9   -1803625.7   -2141025.1    66760.143     43460.92    48232.883    1925.5369     10648000 
  295000    306.38318   -264.61643   -1979994.5    176363.41   -1803631.1   -2140979.3    67315.023     43603.85    48149.448    1916.4739     10648000 
  295500    307.18059   -306.10694   -1980429.7    176822.42   -1803607.3   -2141428.6    67230.933    43551.454    48312.284    1904.1722     10648000 
  296000    306.71473   -330.70205   -1980086.8    176554.26   -1803532.6   -2141214.3    67538.954    43706.761    47977.639     1904.161     10648000 
  296500    307.62555   -294.37187   -1980591.9    177078.56   -1803513.4   -2141324.1    67274.158    43471.206      48068.2    1918.6447     10648000 
  297000    307.32153   -210.83451   -1980502.7    176903.55   -1803599.1   -2141362.6    67303.834    43237.406    48407.997    1910.6679     10648000 
  297500    307.41472   -300.40784   -1980500.4     176957.2   -1803543.2   -2141148.7    67127.109    43510.425     48090.48     1920.308     10648000 
  298000    307.20319   -252.49881   -1980342.4    176835.43   -1803506.9     -2141315    67555.066    43493.738    48015.044    1908.7829     10648000 
  298500    307.75564   -279.48857     -1980764    177153.44   -1803610.6   -2141026.6     66736.73    43360.038    48248.076    1917.6928     10648000 
  299000    307.52948   -242.62633   -1980526.2    177023.25   -1803502.9   -2141078.9    67217.133    43353.928    48067.926    1913.7659     10648000 
  299500     306.9034   -297.72527   -1980166.6    176662.86   -1803503.7   -2141217.6     67252.59    43436.073     48428.43    1933.9193     10648000 
  300000    308.00049   -267.04007   -1980880.4    177294.38   -1803586.1   -2141212.7    66893.066    43432.939    48101.622    1904.6319     10648000 
  300500     307.3442   -267.84672   -1980419.8     176916.6   -1803503.2   -2141209.9    67242.851     43555.12     48094.97    1897.1602     10648000 
  301000    307.11596   -262.42505   -1980228.6    176785.22   -1803443.4   -2141112.8    67523.413    43308.915    48143.927    1907.9816     10648000 
  301500    306.92153   -286.98436   -1980065.2     176673.3   -1803391.9   -2141133.2    67747.645    43305.346    48128.171    1886.8337     10648000 
  302000    307.71364   -275.04734   -1980653.2    177129.26   -1803523.9   -2140984.6    67353.717    43099.684    47966.522     1911.484     10648000 
  302500    307.20373   -290.91127   -1980354.9    176835.74   -1803519.1   -2141059.1    67244.931    43483.424    48067.966    1907.9302     10648000 
  303000    307.61195   -330.38255   -1980514.8    177070.72   -1803444.1   -2141525.3    67384.763    43411.863    48308.038    1905.8105     10648000 
  303500    307.61688   -242.97041     -1980521    177073.56   -1803447.4   -2141386.8    67560.216    43323.843    48076.783    1905.0228     10648000 
  304000    307.01015   -299.89273   -1980114.4    176724.31   -1803390.1     -2140998    67551.921    43359.617    48065.914    1906.0919     10648000 
  304500    307.92119   -310.37762   -1980718.3    177248.73   -1803469.6     -2141419    67187.702    43546.763     48056.49    1909.7674     10648000 
  305000    307.21942   -265.47586   -1980241.5    176844.78   -1803396.8     -2141572    67364.743    43751.114    48291.621    1922.9854     10648000 
  305500     307.2605   -256.42388   -1980309.5    176868.42   -1803441.1   -2141037.3    67332.583    43436.992    48030.333     1927.893     10648000 
  306000    307.57731   -267.12129   -1980431.2    177050.78   -1803380.4   -2141209.7    67081.222    43447.031    48322.266    1927.9739     10648000 
  306500    307.22914   -282.62814     -1980200    176850.37   -1803349.7   -2141464.8    67384.022    43779.612    48195.573    1905.5375     10648000 
  307000    308.08137   -263.71287   -1980660.4    177340.94   -1803319.4   -2141688.7    67559.278     43532.72    48045.802    1890.5583     10648000 
  307500    307.36526   -252.73759   -1980229.6    176928.73   -1803300.9   -2141131.3    67341.493    43369.709    48287.227    1903.2812     10648000 
  308000    308.04336   -233.03761   -1980718.8    177319.06   -1803399.7     -2141252    67029.083    43141.029    48449.731    1913.3213     10648000 
  308500    306.78372   -258.90582   -1979872.5    176593.97   -1803278.5   -2140949.6    67481.728    43440.236    48233.343    1921.8073     10648000 
  309000    307.74613    -250.0438   -1980459.1    177147.96   -1803311.1   -2141119.4    67424.441    43395.077    47942.355    1898.4518     10648000 
  309500    307.86576   -231.11007     -1980500    177216.83   -1803283.1   -2141532.5    67276.089    43711.454    48132.615    1912.3544     10648000 
  310000    308.01688   -248.49559   -1980574.1    177303.82   -1803270.3     -2141008    67112.029    43391.635    48015.455    1914.7369     10648000 
  310500    308.23231   -209.09366   -1980749.1    177427.82   -1803321.3     -2141060    66805.992    43203.278    48388.622    1913.0425     10648000 
  311000    307.54785    -288.8393   -1980283.1    177033.83   -1803249.3   -2141208.2    67160.557    43634.279    48233.992    1896.2163     10648000 
  311500    307.98402    -318.8995     -1980552     177284.9   -1803267.1   -2141255.8    67293.709    43378.276    48137.895    1893.8628     10648000 
  312000    307.64599   -295.49365     -1980338    177090.32   -1803247.7   -2141476.2    67439.714    43568.764    48228.758    1900.9669     10648000 
  312500    308.43792    -277.5268   -1980822.8    177546.18   -1803276.6   -2141393.3    67043.952    43684.828    47941.006    1900.7151     10648000 
  313000     307.5755    -246.3394   -1980278.1    177049.74   -1803228.4   -2141185.5    67352.658    43681.016    47965.207    1908.5036     10648000 
  313500     308.0821   -290.65304   -1980529.5    177341.36   -1803188.2   -2141707.1    67648.604      43588.7    48039.583    1900.6549     10648000 
  314000    308.15714   -305.68143   -1980569.4    177384.55   -1803184.9   -2141297.3    67494.092    43228.341    48093.868    1911.6093     10648000 
  314500     307.6016   -260.84716     -1980294    177064.77   -1803229.2   -2141111.6    67175.158    43221.126    48517.621    1903.7572     10648000 
  315000    307.80836   -246.07006     -1980347    177183.79   -1803163.2   -2141163.9    67570.974    43282.706    48053.336    1909.8391     10648000 
  315500    307.16044   -224.75849   -1979969.8    176810.82     -1803159   -2140896.7    67202.974    43789.552    48026.785    1907.5234     10648000 
  316000    308.25605   -278.52911   -1980610.4    177441.49   -1803168.9   -2141193.4     67240.92    43481.985    47966.515    1893.5533     10648000 
  316500    308.43763   -280.46269   -1980740.3    177546.01   -1803194.3   -2141194.4    67020.682    43479.841    48037.885    1915.6175     10648000 
  317000    307.92678   -242.68258   -1980404.7    177251.95   -1803152.7   -2141253.7    67217.836    43450.559    48265.727    1914.9185     10648000 
  317500    308.44942     -291.251     -1980722     177552.8   -1803169.2   -2141193.3    67108.413    43339.083    48131.462    1892.3311     10648000 
  318000    308.44865   -201.62483   -1980649.4    177552.35   -1803097.1   -2141214.4    67087.266    43440.191    48128.928    1908.5682     10648000 
  318500    307.79055   -305.58273   -1980290.5    177173.53   -1803116.9   -2141278.5    67163.465     43501.05    48398.685     1924.814     10648000 
  319000    307.70141     -322.623   -1980194.3    177122.22   -1803072.1   -2141327.9    67503.566    43548.587    48168.407    1912.9693     10648000 
  319500    306.92983   -260.95796   -1979714.6    176678.08   -1803036.5   -2141131.7    67306.799    43618.359    48565.684    1926.2398     10648000 
  320000     308.4222   -270.58923   -1980560.5    177537.13   -1803023.3   -2141148.5    67292.637    43209.923    48161.558    1923.8999     10648000 
  320500    307.90156   -310.05766   -1980299.3    177237.43   -1803061.8   -2141254.4    67249.724    43545.069    48254.934    1905.4362     10648000 
  321000    308.14343   -237.84306   -1980348.3    177376.66   -1802971.6   -2141552.4    67621.114    43443.207    48235.363    1904.3846     10648000 
  321500    308.63867   -248.14461   -1980723.7    177661.73     -1803062   -2141481.3    67134.381    43325.506    48396.035    1901.6956     10648000 
  322000    307.75943   -336.89307   -1980173.3    177155.62   -1803017.6   -2141318.6    67318.726    43295.408    48612.421    1918.7298     10648000 
  322500    307.71979   -296.04192   -1980055.4     177132.8   -1802922.6   -2141020.5    67578.618    43229.208    48246.412    1910.8059     10648000 
  323000    307.92284   -258.51981   -1980237.8    177249.69   -1802988.1   -2141256.6    67093.318    43485.354    48511.119     1929.034     10648000 
  323500    308.69398   -321.10241   -1980626.6    177693.58     -1802933   -2141653.2    67202.545    43722.775    48208.536    1892.7498     10648000 
  324000     308.0146   -266.49551   -1980240.4     177302.5   -1802937.9   -2141460.3    67355.182    43471.185    48474.834    1918.7531     10648000 
  324500     308.1198   -320.40218   -1980242.3    177363.06   -1802879.2   -2141194.5     67358.74    43605.205    48095.735    1892.5761     10648000 
  325000    307.71398   -304.12875   -1980044.2    177129.45   -1802914.7   -2141231.1    67256.725    43609.517    48374.688    1946.0243     10648000 
  325500    307.77954   -323.87298     -1980085    177167.19   -1802917.8     -2141267    67369.847     43589.23    48315.649    1907.2277     10648000 
  326000    308.32178   -172.06414   -1980409.4    177479.33   -1802930.1   -2141091.4    67073.873    43310.792    48377.659    1919.5998     10648000 
  326500    308.50311   -261.58753     -1980462     177583.7   -1802878.3   -2141752.3    67209.848    43637.522    48522.754    1920.2364     10648000 
  327000    308.61386    -260.4163   -1980554.9    177647.45   -1802907.5   -2141292.3    67235.336    43434.903    48164.418    1902.7047     10648000 
  327500    307.92412   -234.64324   -1980065.1    177250.42   -1802814.7   -2141529.5    67505.122    43699.219    48354.218    1905.8822     10648000 
  328000    308.18532   -333.65677     -1980256    177400.77   -1802855.2   -2141076.4    67311.668    43713.788     47881.18      1913.75     10648000 
  328500    307.61346    -287.9993   -1979907.9     177071.6   -1802836.3   -2141308.5    67494.191    43905.295    48083.937    1917.1464     10648000 
  329000    307.73863    -235.1496   -1980024.2    177143.65   -1802880.6     -2141089    67228.416    43636.496    48282.656    1917.2221     10648000 
  329500    308.18571   -290.93946     -1980232       177401     -1802831   -2141290.1    67348.862     43500.97    48280.844     1927.457     10648000 
  330000    307.37363   -284.73501   -1979758.7    176933.54   -1802825.2   -2141280.5    67587.232    43550.446    48463.678    1920.4151     10648000 
  330500    307.83134   -227.13053   -1980035.6    177197.01   -1802838.6     -2141158    67315.984    43388.075    48487.359    1930.9654     10648000 
  331000    308.31564   -283.93263   -1980295.3    177475.79   -1802819.5   -2141301.9    67513.299    43414.531    48164.321       1914.4     10648000 
  331500    308.31116   -253.93878   -1980270.5    177473.21   -1802797.3   -2141495.6     67400.78     43783.97    48129.535    1910.8434     10648000 
  332000     308.0849   -234.97048   -1980088.5    177342.97   -1802745.5   -2141216.2     67529.07    43347.688    48336.127    1914.8025     10648000 
  332500    308.42948   -291.30549     -1980358    177541.32   -1802816.7   -2141347.9    67273.159     43694.38    48121.596    1900.7179     10648000 
  333000    308.10755   -295.41246   -1980118.9    177356.01   -1802762.9   -2141441.8    67542.286    43625.452    48247.384     1907.772     10648000 
  333500    308.16078   -316.30535   -1980162.1    177386.65   -1802775.5   -2141509.1     67436.65    43646.445    48358.954    1904.9685     10648000 
  334000    308.66759   -262.03546   -1980441.1    177678.38   -1802762.7     -2141381    67357.151    43528.058    48159.641    1895.0334     10648000 
  334500     308.7837   -243.22958   -1980479.7    177745.22   -1802734.5   -2141376.8    67349.939    43760.128    47899.048    1887.9329     10648000 
  335000    308.38017   -245.34014   -1980238.3    177512.93   -1802725.4     -2140877    67133.409    43572.579    48037.461    1895.1993     10648000 
  335500    308.63055   -331.03473   -1980355.4    177657.06   -1802698.3   -2141280.9    67445.433    43503.128    48073.473    1903.5126     10648000 
  336000    308.54764    -328.0472   -1980313.3    177609.33   -1802703.9   -2141126.8    67157.706    43556.487    48166.363    1932.9734     10648000 
  336500     308.3216    -312.5069   -1980115.9    177479.22   -1802636.7   -2141382.3    67258.394    43672.566    48428.328     1907.106     10648000 
  337000    308.74292   -277.01696   -1980432.3    177721.75   -1802710.5   -2141129.6    67125.661    43611.092    48056.255    1904.2664     10648000 
  337500    308.64394   -241.13563   -1980335.4    177664.77   -1802670.6   -2141235.4    67026.597    43798.689    48161.377    1913.2916     10648000 
  338000    308.24273   -258.30737   -1980031.4    177433.82   -1802597.6   -2141008.6     67303.61    43743.746    48015.314    1914.5208     10648000 
  338500    308.50579   -246.73789   -1980250.7    177585.25   -1802665.5     -2141155    67184.053    43444.092    48356.992    1919.1197     10648000 
  339000    308.50581   -267.00709   -1980130.8    177585.26   -1802545.5   -2141431.3    67622.973    43380.908    48381.732    1914.9229     10648000 
  339500    308.41426   -276.28261   -1980110.2    177532.56   -1802577.6   -2141373.5    67682.131    43500.076     48167.78    1913.3195     10648000 
  340000     308.8018   -283.20199   -1980340.2    177755.64   -1802584.5   -2141313.5    67406.096    43428.974    48222.998    1915.3173     10648000 
  340500    303.76469   -305.88793   -1983582.8    174856.13   -1808726.6     -2142217    66333.288    42946.611    47484.762    1869.5339     10648000 
  341000    302.80482   -281.28207   -1982981.2    174303.59   -1808677.6   -2141911.6    66508.107    42966.604    47570.679    1885.0155     10648000 
  341500    303.81877   -221.80525   -1983616.5    174887.26   -1808729.3     -2142157    66235.979    42913.804    47503.853    1886.8815     10648000 
  342000    303.75456   -309.10888     -1983529    174850.29   -1808678.7   -2142305.3    66423.476    42666.954    47792.937    1892.8921     10648000 
  342500    303.52694   -244.66779   -1983427.2    174719.27   -1808707.9   -2142281.8    66357.542    42984.218    47630.329    1882.5899     10648000 
  343000    303.67096   -241.70302     -1983458    174802.17   -1808655.8   -2142508.2    66618.572    42949.787      47594.1      1887.74     10648000 
  343500    303.68362   -278.18958   -1983447.6    174809.46   -1808638.1   -2142334.4    66315.645    42775.184     47896.66    1899.3642     10648000 
  344000    303.50308   -261.89494   -1983335.2    174705.53   -1808629.7   -2142375.5    66402.823    42986.449    47758.684    1892.3238     10648000 
  344500     303.4954    -240.7849   -1983295.1    174701.12     -1808594     -2142382    66615.884    42930.975    47666.485    1873.5516     10648000 
  345000    303.89511    -316.0578   -1983558.5     174931.2   -1808627.3     -2142581    66665.782    42636.068    47825.582    1895.0644     10648000 
  345500    304.11915   -253.19247     -1983722    175060.17   -1808661.8   -2142216.5    66300.686    42672.806    47633.491     1887.511     10648000 
  346000    303.46886    -304.4274   -1983313.1    174685.84   -1808627.3   -2142257.6    66384.632    42986.207    47693.386    1880.2641     10648000 
  346500     303.3138    -294.1021   -1983182.9    174596.58   -1808586.3   -2142296.5      66724.5    42859.528    47652.792    1876.7358     10648000 
  347000     303.8668   -242.77392   -1983458.1     174914.9   -1808543.2   -2142527.1    66514.591    43038.449    47624.063     1891.903     10648000 
  347500    304.44754   -256.04045   -1983864.2    175249.19     -1808615   -2142502.8     66123.79    42759.529    47876.504    1878.7929     10648000 
  348000    303.98744      -336.95     -1983638    174984.35   -1808653.7   -2142447.3    66249.807    42937.178     47753.46    1868.8645     10648000 
  348500    304.34072   -253.75857   -1983756.2    175187.71   -1808568.5   -2142487.8    66397.872    42737.701    47713.708    1882.3897     10648000 
  349000    303.81252   -280.67155   -1983463.6    174883.66   -1808579.9   -2142548.6    66402.349    43172.971    47645.864    1863.8708     10648000 
  349500     303.7608   -252.68983   -1983381.5    174853.89   -1808527.6   -2142721.9    66403.208    43046.615    48004.885    1885.7474     10648000 
  350000    304.28665   -280.06761   -1983746.3    175156.58   -1808589.7   -2142627.2    66242.724    43137.071    47632.527    1868.5439     10648000 
  350500    304.15256   -272.80355   -1983580.6     175079.4   -1808501.3   -2142471.9    66515.814    42996.059    47496.083     1883.264     10648000 
  351000    304.28791   -235.60694   -1983692.2    175157.31   -1808534.9   -2142539.1    66243.149    43047.545    47686.627    1869.6131     10648000 
  351500    303.81798   -284.54871   -1983411.5     174886.8   -1808524.7   -2142144.8    66279.008    42782.682    47784.577    1887.0657     10648000 
  352000    303.63786   -260.28494   -1983267.3    174783.12   -1808484.2   -2142305.4    66537.432    42902.841    47722.107      1875.75     10648000 
  352500    303.52709   -265.75732   -1983148.4    174719.36   -1808429.1   -2142435.5     66638.39    42927.251    47849.432    1872.0288     10648000 
  353000    304.05469   -262.55199   -1983459.4    175023.06   -1808436.3   -2142388.6    66413.019    42927.067    47708.254    1880.8983     10648000 
  353500    303.84899   -259.23099   -1983376.3    174904.65   -1808471.6   -2142360.3    66273.981    43073.927    47735.405    1900.7383     10648000 
  354000    304.06255   -275.13417   -1983498.3    175027.58   -1808470.8     -2142370    66361.619    42855.702      47769.1     1885.237     10648000 
  354500    304.14495   -260.75001   -1983531.9    175075.02   -1808456.9   -2142354.1    66395.308    42987.417     47577.45    1861.9639     10648000 
  355000    303.78111   -244.57399   -1983349.5    174865.58   -1808483.9   -2142391.6    66207.215    43103.655    47854.232    1877.0387     10648000 
  355500    304.15778   -310.93075   -1983559.2     175082.4   -1808476.8   -2142441.3    66229.586    42860.209    47894.256    1898.0286     10648000 
  356000    303.65197   -238.00957   -1983183.5    174791.24   -1808392.3   -2142355.2    66665.534    42859.191    47758.934    1888.0482     10648000 
  356500    303.62945   -231.95686   -1983175.4    174778.28   -1808397.1   -2142723.3    66595.115    43175.616    47890.487    1886.6751     10648000 
  357000    304.34893    -248.0328   -1983659.4    175192.43     -1808467   -2142510.9    66313.391    43013.088    47646.279    1878.7008     10648000 
  357500    304.48533   -242.63772   -1983707.4    175270.95   -1808436.5   -2142688.8    66400.326    42966.504    47719.125    1895.3698     10648000 
  358000    304.02248   -239.12926   -1983363.5    175004.52     -1808359   -2142543.7    66612.138    42858.525    47824.028    1885.5504     10648000 
  358500    304.22155    -281.4426   -1983503.2    175119.11   -1808384.1   -2142594.6    66542.123    43043.803    47617.876    1887.6005     10648000 
  359000       304.06    -331.1312   -1983382.5    175026.11   -1808356.4   -2142605.1    66601.617    43026.335    47695.619    1898.9933     10648000 
  359500     303.6737   -295.88362   -1983131.1    174803.75   -1808327.4   -2142719.8    66594.527    43003.084    48095.908    1895.1446     10648000 
  360000    303.76215   -240.26529   -1983111.4    174854.67   -1808256.8   -2142591.9     66793.49     42997.45    47809.704    1879.8257     10648000 
  360500     304.0161   -253.42001   -1983312.9    175000.85   -1808312.1   -2142605.4    66589.723    43249.428    47563.897    1889.4048     10648000 
  361000    304.31769   -269.33063   -1983476.9    175174.45   -1808302.5   -2142770.2    66685.983    43024.656    47687.563    1895.0342     10648000 
  361500     304.7132   -206.00909   -1983740.7    175402.12   -1808338.6   -2142411.5    66273.702     42960.99    47563.891    1872.2508     10648000 
  362000    304.71902   -349.89878   -1983666.5    175405.47     -1808261     -2142981    66706.877    42824.055    47887.077    1896.4765     10648000 
  362500    304.81867   -319.87974   -1983740.9    175462.83   -1808278.1   -2142935.7    66490.815     43008.32    47795.382    1900.3324     10648000 
  363000    304.39326   -285.31536   -1983452.5    175217.95   -1808234.5     -2142746    66797.294    42899.643    47690.606     1905.987     10648000 
  363500    304.23823   -279.40688   -1983350.7    175128.71     -1808222   -2142813.9    66616.151    43363.556    47610.097    1873.3979     10648000 
  364000    303.51188   -301.38331   -1982884.8     174710.6   -1808174.2   -2142689.3    67140.004    43013.112    47774.043    1877.2691     10648000 
  364500    304.43715   -256.55251   -1983465.5    175243.22   -1808222.2   -2142734.7    66543.406    42902.414    47921.149    1902.2738     10648000 
  365000     303.8645   -323.37191   -1983067.9    174913.58   -1808154.3   -2142552.2     66826.35    43058.279     47720.09    1879.6156     10648000 
  365500    304.30911   -286.75849   -1983337.2    175169.51   -1808167.7   -2142747.8    66541.084      43138.2    47847.739    1883.5959     10648000 
  366000    304.78812   -219.91018   -1983632.5    175445.25   -1808187.2   -2142592.5    66235.282    43189.008     47656.65    1879.1313     10648000 
  366500    304.00826   -277.95776     -1983136    174996.33   -1808139.6   -2142822.9    66780.263    43218.917    47792.593    1895.1889     10648000 
  367000    304.30026   -232.62002   -1983304.6    175164.41   -1808140.1   -2142554.9    66583.713    42889.957    47877.124    1899.5328     10648000 
  367500    304.39279   -289.22349   -1983381.8    175217.68   -1808164.1   -2142569.1     66408.05    43120.011    47748.116    1911.1478     10648000 
  368000    304.34548   -234.47783   -1983341.9    175190.45   -1808151.5   -2142432.3    66399.156    43329.927    47471.661    1889.6492     10648000 
  368500    304.53494   -272.98425   -1983441.8     175299.5   -1808142.3   -2142548.9    66598.654    42978.152     47631.26    1899.0123     10648000 
  369000    304.76416   -290.49356   -1983600.4    175431.45   -1808168.9   -2142850.9    66569.874    42969.398    47811.892    1899.3287     10648000 
  369500    304.81411   -254.95586   -1983584.9    175460.21   -1808124.7   -2142589.9    66589.253     42942.42    47582.565     1890.779     10648000 
  370000    304.44209    -284.4703   -1983297.1    175246.06   -1808051.1   -2142632.8    66737.331    43023.163    47687.758    1887.4114     10648000 
  370500    304.06828   -332.46387   -1983138.9    175030.88     -1808108   -2142671.2    66893.644     43197.56    47561.301    1879.7986     10648000 
  371000      304.639   -283.98767   -1983464.6     175359.4   -1808105.2   -2142725.4    66672.543    43087.187    47624.687    1876.3455     10648000 
  371500     304.4754   -271.08842   -1983365.7    175265.23   -1808100.5   -2142649.7    66652.195    43064.925    47681.535    1885.3732     10648000 
  372000    304.39376   -290.69717   -1983268.3    175218.24     -1808050   -2142855.5    66808.271    42969.181    47905.887    1903.8534     10648000 
  372500     304.3592    -299.7762   -1983315.7    175198.34   -1808117.4   -2142525.2    66445.984    43101.084    47766.276    1896.1208     10648000 
  373000    304.19903    -224.6104   -1983140.2    175106.15   -1808034.1   -2142726.3    66683.527    43142.587    47850.167    1909.8092     10648000 
  373500    304.30228   -290.73828   -1983178.9    175165.58   -1808013.3   -2142933.7    66787.794    43040.751    48020.246    1905.9696     10648000 
  374000    304.54847   -256.76017   -1983349.9     175307.3   -1808042.6   -2142499.3    66554.156    43156.948    47547.381    1890.8913     10648000 
  374500    304.33579   -355.38287   -1983164.7    175184.87   -1807979.9   -2143017.5      66903.2    43278.239    47785.071    1886.2357     10648000 
  375000    304.69305   -237.00099   -1983433.2    175390.52   -1808042.7     -2142676    66679.328    43103.077    47572.557    1887.8739     10648000 
  375500    305.02697   -262.69272     -1983606    175582.73   -1808023.3     -2142801    66497.739    43030.859    47782.863    1883.5633     10648000 
  376000    305.56793   -317.68433   -1983952.2    175894.13   -1808058.1   -2143024.9    66500.056    42879.145    47804.659    1888.8795     10648000 
  376500    305.38043   -250.68213     -1983840    175786.19   -1808053.8   -2142874.8     66383.19    43020.525     47746.01    1885.0704     10648000 
  377000    305.29814   -267.92492   -1983744.9    175738.83   -1808006.1   -2143108.1    66621.535    43044.035    47803.305    1894.3802     10648000 
  377500    304.94802   -317.80397   -1983569.1    175537.29   -1808031.8   -2142876.1     66397.26    43005.161     48001.47    1903.0736     10648000 
  378000     304.0104   -294.80037   -1982920.4    174997.57   -1807922.8   -2142514.1    66717.461    43125.081    47857.875    1893.2776     10648000 
  378500    305.25627   -311.38311   -1983696.4    175714.73   -1807981.7   -2142985.6    66654.341    42974.053    47771.687    1889.1546     10648000 
  379000    304.73719   -348.90902   -1983339.1    175415.92   -1807923.2   -2142899.6    66914.369    42937.147      47812.6    1896.3396     10648000 
  379500    305.33036    -240.9335   -1983708.5    175757.37   -1807951.1   -2142819.9    66640.331    42978.348    47601.557    1891.1843     10648000 
  380000    305.62585   -285.54358   -1983918.3    175927.47   -1807990.9   -2142939.9    66040.526    43008.743    48048.106    1924.2188     10648000 
  380500    305.64539   -275.84173   -1983928.5    175938.71   -1807989.8   -2143164.2    66479.169    43061.996    47810.635    1883.9462     10648000 
  381000     304.4446   -264.43488   -1983176.3     175247.5   -1807928.8   -2142802.3    66836.248     43285.83    47608.148    1895.7724     10648000 
  381500    305.02786   -268.68062   -1983512.5    175583.25   -1807929.2   -2143140.8    66658.366    43137.786     47930.29    1901.8577     10648000 
  382000    304.38604   -256.62427   -1983074.6     175213.8   -1807860.8   -2142901.5    66934.781    43169.988    47824.569    1897.5521     10648000 
  382500    304.94043   -260.08648     -1983464    175532.92   -1807931.1   -2143094.2    66680.401    43102.789    47944.603     1902.357     10648000 
  383000    304.90979   -275.64091   -1983380.1    175515.28   -1807864.8   -2142594.5    66619.152    42944.211    47750.789    1900.2405     10648000 
  383500    304.37056   -285.93617   -1983002.2    175204.89   -1807797.3   -2142856.5    66897.867    43023.178    48046.219    1887.0679     10648000 
  384000     305.1063   -295.23842   -1983437.5     175628.4   -1807809.1   -2142668.9    66476.888    43138.465    47740.637     1875.465     10648000 
  384500    304.84553   -245.25354   -1983277.7    175478.29   -1807799.4   -2142483.8    66239.828     43240.59    47829.848    1895.8731     10648000 
  385000    304.68043   -316.86978   -1983160.1    175383.25   -1807776.9   -2142561.2    66702.058    42811.609    47985.106    1902.2715     10648000 
  385500    304.67057   -319.47304   -1983125.2    175377.58   -1807747.6     -2142700    66665.984     43277.93    47741.186    1889.7269     10648000 
  386000    304.94605   -272.03254   -1983318.5    175536.15   -1807782.3   -2142795.7    66538.113    43244.145    47803.767    1891.1811     10648000 
  386500    305.11199   -225.95393   -1983389.9    175631.67   -1807758.3     -2142883    66581.805    42964.875    48043.791     1902.628     10648000 
  387000    304.87024   -337.62179   -1983269.3    175492.52   -1807776.8   -2142776.9    66881.074    42799.098    47910.671    1916.7743     10648000 
  387500    305.50989   -257.91662   -1983655.2    175860.72   -1807794.4   -2142857.3    66561.544    42909.717     47830.27    1900.6054     10648000 
  388000    304.91398   -238.40054   -1983194.2    175517.69   -1807676.5   -2143004.4    66991.168    43271.155     47669.27    1878.6701     10648000 
  388500    305.12915   -279.58937     -1983316    175641.55   -1807674.5   -2143246.9     66740.18    43324.404    47953.687    1912.5437     10648000 
  389000    305.38141   -253.01866     -1983496    175786.76   -1807709.3   -2143324.4    66627.695    43172.717     48114.56    1913.3836     10648000 
  389500    304.70263   -265.83555     -1983112    175396.03     -1807716   -2142904.6    66813.077    43203.766    47866.717    1909.0322     10648000 
  390000    304.70456   -351.74705   -1983054.7    175397.14   -1807657.6     -2142986    67042.253    43135.979    47854.634    1898.4562     10648000 
  390500    306.05537   -246.15232   -1983846.6    176174.71   -1807671.9   -2142824.6    66330.308    43131.257     47633.94     1882.487     10648000 
  391000    304.97322   -262.20557   -1983239.6    175551.79   -1807687.8   -2142810.7    66565.623    43260.053    47827.388    1917.9559     10648000 
  391500     305.5782   -302.88571   -1983573.5    175900.04   -1807673.4   -2143009.5     66650.44    43180.035    47718.645    1886.8949     10648000 
  392000    304.36289     -216.419   -1982833.6    175200.47   -1807633.2   -2143077.9    66743.464    43329.328    48244.019    1927.4412     10648000 
  392500    305.27201   -280.65715   -1983383.6    175723.79   -1807659.8   -2143146.7    66775.305    43061.164    48041.278    1885.3809     10648000 
  393000    305.70896   -217.50155   -1983676.1     175975.3   -1807700.8   -2143039.7        66422    43110.951    47947.234    1883.4262     10648000 
  393500    305.22867   -281.71338   -1983298.3    175698.84   -1807599.5   -2143018.3    66364.859    43312.473    48141.821     1900.785     10648000 
  394000    305.40697   -234.33085   -1983397.1    175801.47   -1807595.6   -2142805.2    66439.424    43247.614    47806.143    1914.8749     10648000 
  394500    304.71352   -264.91054   -1982967.1     175402.3   -1807564.8     -2142819    66900.081    43135.505    47914.602     1901.677     10648000 
  395000    304.87588    -310.5561   -1983096.3    175495.76   -1807600.6   -2142831.3    66669.873    43282.953    47861.457    1920.7106     10648000 
  395500    305.36818   -295.17437     -1983357    175779.14   -1807577.8   -2142940.8    66813.769    43150.809     47741.31    1877.9703     10648000 
  396000    305.52309   -277.53526   -1983412.2    175868.32   -1807543.8   -2142997.9    66868.295    42981.233    47835.178    1901.0585     10648000 
  396500    304.78836   -252.79896   -1982960.8    175445.38   -1807515.4   -2142799.5    66991.772    43226.211    47722.584    1898.0863     10648000 
  397000    306.01342   -276.77418   -1983742.6    176150.56   -1807592.1   -2143328.6    66768.909    43199.336    47726.902    1890.7713     10648000 
  397500    305.69211   -271.60328   -1983541.1    175965.61   -1807575.5   -2143245.1    66734.014    43275.557    47806.011    1888.4081     10648000 
  398000    304.24297   -235.26616   -1982636.7    175131.44   -1807505.3   -2142830.9    67207.748    43307.434    47778.366    1900.6792     10648000 
  398500    305.00905   -255.45928   -1983067.6    175572.42   -1807495.2   -2143005.7    67037.484     43426.28    47600.389    1873.9763     10648000 
  399000    305.72081   -269.54975   -1983483.2    175982.13     -1807501   -2142995.3    66716.265     43176.55    47736.721    1882.6025     10648000 
  399500     304.7397   -293.70422   -1982860.1    175417.37   -1807442.7   -2143023.3    67082.301    43050.641    48135.105    1895.1896     10648000 
  400000    305.09468   -304.27262   -1983059.8    175621.71   -1807438.1   -2142852.5    67193.822     43051.24    47655.211     1892.437     10648000 
  400500    305.85053   -222.31909   -1983543.1     176056.8   -1807486.3   -2143167.4    66810.895    43026.618    47876.217    1910.5843     10648000 
  401000    305.32601   -216.77436     -1983202    175754.87   -1807447.1     -2143315    67063.969    43241.438    47902.583    1904.9906     10648000 
  401500    304.69859   -337.90759   -1982810.3    175393.71   -1807416.6   -2143043.3     67137.29    43438.142    47781.707    1875.8729     10648000 
  402000    304.73392   -311.96677   -1982843.3    175414.05   -1807429.3   -2142951.1    66915.037    43201.041    48076.546    1915.1527     10648000 
  402500     305.5448   -323.63301     -1983325    175880.81   -1807444.2   -2143122.5    66966.815    43058.108    47864.897    1907.6862     10648000 
  403000     305.7745   -269.39911   -1983453.2    176013.03   -1807440.2   -2142713.3    66514.196    43005.599    47823.985    1916.2816     10648000 
  403500    305.67025   -259.69145   -1983391.7    175953.02   -1807438.6   -2142736.6    66699.441    43282.035    47482.367    1881.0525     10648000 
  404000    305.22163   -302.60336   -1983100.8    175694.78   -1807406.1     -2143389    67051.633    43415.725    47938.212    1882.5994     10648000 
  404500     306.3352   -286.26266   -1983803.7    176335.79   -1807467.9   -2143054.3    67005.338    42950.522    47418.289    1876.4104     10648000 
  405000    306.02377   -268.84785   -1983562.3    176156.52   -1807405.8   -2143008.6    66957.465    42976.487    47637.119    1875.2171     10648000 
  405500    306.16401   -240.68019   -1983678.7    176237.25   -1807441.4   -2142945.8    66513.869     43019.37    47849.564    1884.2999     10648000 
  406000    305.38304   -235.42662     -1983170     175787.7   -1807382.3   -2142572.3    66602.094     43271.58    47648.514    1880.1326     10648000 
  406500    305.04542   -282.06297   -1982916.5    175593.35   -1807323.2   -2142855.5    66958.454    43109.674    47963.602    1907.2913     10648000 
  407000     305.7899   -257.32867   -1983398.2     176021.9   -1807376.3   -2142669.4    66584.747    42904.156    47908.073    1874.2202     10648000 
  407500    306.19523   -279.53655   -1983617.7    176255.22   -1807362.5   -2143290.6    66687.332     43188.44     47892.36    1904.7559     10648000 
  408000    305.46725   -304.04016   -1983154.1    175836.17     -1807318   -2143225.8    66917.055    43017.155     48218.68    1918.7322     10648000 
  408500    305.81763   -270.82183   -1983368.4    176037.86   -1807330.5   -2143454.5    67115.012    43094.747    47968.294     1908.063     10648000 
  409000    306.14401   -303.81318   -1983601.9    176225.74   -1807376.2   -2143445.1    66948.453    43008.702    47987.023    1899.0256     10648000 
  409500     305.6404   -243.51802   -1983255.5    175935.84   -1807319.6   -2143034.3    67043.616     42977.42    47853.542    1904.2609     10648000 
  410000    305.47891   -239.55112   -1983114.4    175842.88   -1807271.5   -2143052.1    66800.106    43230.851    48014.095    1892.6855     10648000 
  410500    305.84048   -275.59424   -1983309.2    176051.01   -1807258.2   -2143182.4    66833.166    43296.972    47843.877    1899.1274     10648000 
  411000    306.15505   -256.47857   -1983522.3    176232.09   -1807290.2     -2143255    66960.323    42904.492    47961.296    1906.5923     10648000 
  411500    306.05818   -203.66854   -1983501.3    176176.33     -1807325     -2143319    66852.412    43090.394    47969.623    1905.2612     10648000 
  412000    306.64735   -272.82576     -1983847    176515.47   -1807331.5   -2143436.5     66735.04    43205.189    47772.704    1876.5966     10648000 
  412500    305.57476   -281.38984   -1983164.6    175898.06   -1807266.5   -2142951.5    67045.202    43324.286     47553.62    1863.8198     10648000 
  413000    306.02845   -296.14573     -1983495    176159.21   -1807335.8   -2143465.2    66824.066    43272.977    47988.716    1884.4445     10648000 
  413500    306.06003   -267.13897   -1983444.8    176177.39   -1807267.4   -2143413.9    67011.005    43071.005    47991.805    1895.2769     10648000 
  414000     306.3527   -183.64998   -1983572.7    176345.86   -1807226.9   -2142972.3    66585.358    43194.763     47722.63     1896.878     10648000 
  414500     305.8852    -275.6863   -1983248.9    176076.76   -1807172.2   -2143153.8    66952.351    43211.629    47853.729    1887.1673     10648000 
  415000    306.03844   -274.56977   -1983339.5    176164.96   -1807174.5   -2143293.9    66983.248    43200.085    47880.973     1890.135     10648000 
  415500    306.49816    -219.4609     -1983589    176429.59   -1807159.4   -2143247.2    66938.386    43152.609    47696.263    1871.0176     10648000 
  416000    305.84151   -249.91695   -1983268.8    176051.61   -1807217.2   -2143288.7    66781.089    43382.815    47950.864    1905.0871     10648000 
  416500    305.87842   -297.82156   -1983207.1    176072.85   -1807134.2   -2143293.3    66873.134    43377.634    47940.358    1895.1031     10648000 
  417000    305.84933   -240.39466   -1983182.3    176056.11   -1807126.2   -2143333.2    67071.245    43324.758    47862.365    1892.4835     10648000 
  417500    306.14035    -261.2177   -1983404.1    176223.63   -1807180.5   -2143260.8    66659.615    43205.441    48079.209    1912.4115     10648000 
  418000    305.97214   -281.07459   -1983276.6     176126.8   -1807149.8   -2143140.7    66934.408    43343.919    47684.507    1901.2521     10648000 
  418500    305.59563   -287.89634   -1983062.4    175910.07   -1807152.3     -2142863    66792.198    43368.071    47724.004    1916.3919     10648000 
  419000    305.99647   -237.67554   -1983245.5    176140.81   -1807104.7   -2143245.7    66784.339    43544.868    47775.116    1895.8103     10648000 
  419500    305.20494   -306.57688   -1982753.8    175685.18   -1807068.7   -2143343.1    67036.116    43354.292     48288.07    1910.7465     10648000 
  420000    305.53755   -258.49885   -1982971.8    175876.64   -1807095.2   -2143273.1    67086.493    43404.303    47914.679    1895.8207     10648000 
  420500    306.12753   -303.59816   -1983278.1    176216.25   -1807061.8   -2143593.6    67192.368    43330.096    47907.944    1885.1433     10648000 
  421000     305.7806    -259.2134   -1983087.1    176016.55   -1807070.6   -2143282.9    67206.752    43093.002    47997.039    1899.0201     10648000 
  421500    305.40584   -303.97291   -1982877.1    175800.82   -1807076.3   -2143200.3    67189.837    43255.833    47969.192    1908.3234     10648000 
  422000    306.37711   -271.77525   -1983418.6    176359.92   -1807058.7   -2143306.4    66804.829    43344.966    47848.914    1889.0028     10648000 
  422500    305.64719   -318.53408   -1982947.1    175939.75   -1807007.4   -2143426.8    67394.941    43348.756    47841.004    1894.9944     10648000 
  423000     306.0313   -289.85707   -1983244.1    176160.86   -1807083.3   -2143512.2    66666.436    43521.783      48160.2    1919.6807     10648000 
  423500    306.10347   -350.64193   -1983203.2     176202.4   -1807000.8   -2143738.1    67107.528     43323.18    48209.489    1894.7434     10648000 
  424000    305.95724    -279.0072   -1983200.7    176118.22   -1807082.4   -2143298.1    66846.931    43386.565    47963.758    1900.2195     10648000 
  424500    306.29816   -270.00792   -1983347.7    176314.47   -1807033.2   -2143453.5    66748.919    43366.742     48080.32    1909.8055     10648000 
  425000    306.03247   -273.31268   -1983195.2    176161.53   -1807033.7   -2143326.2    66938.736      43358.1    47931.615    1902.5396     10648000 
  425500    305.98048   -312.09236   -1983124.5     176131.6   -1806992.9   -2143280.4    66980.667    43075.917    48213.261    1886.0242     10648000 
  426000    306.78005   -315.02407     -1983627    176591.86   -1807035.1   -2143573.1    66982.196     43078.94    47971.941    1913.1164     10648000 
  426500    306.66272   -247.65046     -1983543    176524.32   -1807018.6   -2143220.2    66597.797    43229.617    47949.634    1900.2202     10648000 
  427000    306.30013   -282.05405   -1983276.7     176315.6   -1806961.1     -2143358    67064.838    43209.391     47915.14    1891.8534     10648000 
  427500    307.21346    -217.0817   -1983856.1    176841.34   -1807014.8   -2143318.8    66581.322    43016.151    47973.998    1891.2195     10648000 
  428000    306.21547   -280.04863   -1983191.9    176266.87     -1806925   -2143352.1    67131.637    42985.235    48150.122    1893.2354     10648000 
  428500    306.41891   -302.54994   -1983294.4    176383.97   -1806910.4   -2143139.4    66756.062    43388.372    47779.842    1920.7704     10648000 
  429000    306.16714    -261.8427   -1983183.8    176239.05   -1806944.8   -2143245.2    66812.656     43456.45    47900.929    1891.3407     10648000 
  429500     305.7425   -296.34476   -1982860.8    175994.61   -1806866.2   -2143004.5    67068.482     43168.88    47988.565    1917.7626     10648000 
  430000    305.85982   -277.85079   -1982850.2    176062.14     -1806788   -2143025.1    66910.115    43437.934    47949.356    1877.5665     10648000 
  430500    305.83412   -269.43645   -1982871.7    176047.35   -1806824.3   -2142937.7    66762.026    43410.486     47995.48    1898.0396     10648000 
  431000    306.25964   -241.10818   -1983149.2    176292.29   -1806856.9   -2143356.1    67155.614    43137.118    47995.237    1918.9171     10648000 
  431500    305.79012   -272.16496   -1982866.9    176022.02   -1806844.9     -2143063    66695.887    43475.975    48099.468    1924.8231     10648000 
  432000    306.48917   -324.61217   -1983242.2    176424.42   -1806817.8   -2142954.6     66886.68    43373.471    47566.445    1885.8195     10648000 
  432500      306.477   -281.33478   -1983254.8    176417.41   -1806837.4   -2143516.8    66825.545    43236.507    48278.055    1921.8403     10648000 
  433000    306.50747    -282.7504   -1983280.6    176434.95   -1806845.7   -2143577.4    66766.864    43478.321    48128.737    1922.8121     10648000 
  433500    306.70688   -260.11777   -1983372.7    176549.74     -1806823   -2143382.8    66723.528    43388.262    48001.964    1896.3556     10648000 
  434000    307.04145   -259.71938   -1983551.5    176742.33   -1806809.2   -2143323.5    66893.168    43410.619    47566.518    1901.6946     10648000 
  434500    306.87631   -254.32359   -1983382.7    176647.27   -1806735.4   -2143609.4    67215.165    43069.857    48027.623    1914.0758     10648000 
  435000    306.24857   -277.43977   -1983025.7    176285.92   -1806739.8   -2143081.3    66975.992    43371.798    47813.869    1893.9311     10648000 
  435500    305.93534   -208.80099   -1982829.4    176105.62   -1806723.8   -2143150.5    67191.211    43234.444    47980.379    1914.9881     10648000 
  436000    306.27861   -283.34105     -1983035    176303.22   -1806731.8   -2143177.4    67004.758     43405.25    47836.706    1895.7047     10648000 
  436500    305.65084   -275.98586   -1982654.4    175941.85   -1806712.6     -2142986    66969.809    43613.423    47852.003    1896.3448     10648000 
  437000    306.54517   -270.92369   -1983160.9    176456.65   -1806704.3   -2143245.8    67087.244    43116.167    47983.005    1898.4356     10648000 
  437500    306.36174    -339.0382   -1983084.9    176351.07   -1806733.8     -2143026     66682.62    43335.851    48018.863    1903.7503     10648000 
  438000    306.63411   -238.06862   -1983172.6    176507.85   -1806664.8   -2143421.8    67103.995    43480.569    47781.969    1882.5965     10648000 
  438500    306.28761   -308.72309   -1982968.4     176308.4     -1806660   -2143171.7    67040.582    43309.601    47969.165    1883.9188     10648000 
  439000    306.71731   -226.87035   -1983275.9    176555.74   -1806720.1   -2143456.2    66849.073    43496.697    47928.114    1906.4535     10648000 
  439500    306.27372   -225.29151   -1982932.9     176300.4   -1806632.5   -2143309.3    66996.228    43401.241    48069.766     1909.176     10648000 
  440000    306.49299   -298.03172     -1983053    176426.62   -1806626.4     -2143543     67356.66     43423.01    47808.241    1902.0378     10648000 
  440500    307.16676   -284.86279   -1983510.2    176814.46   -1806695.7   -2143307.2    66940.423     43042.17    47914.822    1899.5847     10648000 
  441000    306.52226   -251.97614   -1983074.1    176443.47   -1806630.6   -2143193.8    66924.252    43359.541    47930.491    1905.4563     10648000 
  441500    306.68909   -334.52639   -1983172.3     176539.5   -1806632.8   -2143326.9    67020.792    43094.716    48128.723    1910.3926     10648000 
  442000    307.10808   -218.69123   -1983468.3    176780.68   -1806687.6   -2143232.2    66754.972    43259.773    47846.522    1902.5965     10648000 
  442500    306.29217   -224.55443   -1982935.7    176311.02   -1806624.7     -2143371    67125.431    43322.144    48075.098    1912.5689     10648000 
  443000    307.29509   -212.96517   -1983486.8    176888.33   -1806598.5   -2143336.8    66918.628    43212.781    47835.436    1883.1773     10648000 
  443500    306.26919   -293.39797   -1982936.9    176297.79   -1806639.1   -2143207.5    66947.211     43446.47    47957.593    1919.3309     10648000 
  444000    306.97797   -267.42463   -1983304.1    176705.79   -1806598.3   -2143560.7    67006.498    43343.296    48003.443    1903.4154     10648000 
  444500     306.0046   -166.76089   -1982689.9    176145.48   -1806544.4   -2143244.4    67350.005     43294.54    48009.397    1900.4933     10648000 
  445000    306.72484   -244.45682   -1983132.3    176560.08   -1806572.2     -2143267    67092.262    43301.917    47838.405    1902.1414     10648000 
  445500    306.88454   -315.64742     -1983232    176652.01     -1806580     -2143478    67244.348    43148.648    47948.671    1904.3738     10648000 
  446000    306.50826   -313.95597   -1982959.6    176435.41   -1806524.2   -2143335.1    67245.645    43235.069     48000.47    1894.3579     10648000 
  446500    305.94296   -209.64719   -1982645.1       176110   -1806535.1   -2143456.7    67153.204    43650.442    48097.528    1910.4223     10648000 
  447000     306.0282   -242.03454   -1982668.5    176159.07   -1806509.4   -2142936.7    66913.635    43416.432    48019.112    1919.0148     10648000 
  447500    306.27275   -249.31269     -1982809    176299.84   -1806509.2   -2143325.8    66946.438    43598.495     48069.41    1902.3886     10648000 
  448000    306.79141    -277.7289   -1983084.1     176598.4   -1806485.7   -2143452.7    67195.609    43380.754    47881.977    1910.1758     10648000 
  448500    306.89073   -270.68897   -1983232.5    176655.57   -1806576.9   -2143347.2    66690.189    43402.597    48121.078    1900.8236     10648000 
  449000    306.72439   -301.08865   -1983023.9    176559.82   -1806464.1   -2143615.7    67257.497    43622.734    47825.405    1886.1926     10648000 
  449500    306.61831   -196.64754   -1982943.8    176498.76   -1806445.1   -2143755.1    67187.521    43572.658    48148.859    1902.2762     10648000 
  450000    307.06537   -293.66472   -1983159.4    176756.09   -1806403.3     -2143792    67122.846    43343.284    48255.483    1910.9459     10648000 
  450500    307.08665   -311.66406   -1983145.1    176768.35   -1806376.7   -2143537.8    67356.219    43270.302    47858.792    1907.4074     10648000 
  451000    307.09996   -326.87471     -1983200    176776.01     -1806424     -2143829    67251.934      43318.8    48146.199    1912.0579     10648000 
  451500     307.2807   -243.84925   -1983316.6    176880.05   -1806436.5   -2143599.9    66928.117    43389.738     48057.15    1908.2889     10648000 
  452000    306.21987   -333.72374   -1982658.4     176269.4     -1806389   -2143525.8    67172.416    43439.319    48366.465    1889.1969     10648000 
  452500    307.61957   -276.11849   -1983498.1    177075.11     -1806423     -2143597    67006.012    43010.094    48173.914    1908.8044     10648000 
  453000    306.81536   -312.16132   -1982991.8    176612.18   -1806379.6   -2143476.3    67167.902    43304.898    48079.801     1931.954     10648000 
  453500    307.24622   -270.27284   -1983253.5     176860.2   -1806393.3   -2143592.5    66811.427    43463.036    48169.924    1894.5736     10648000 
  454000    307.41678    -341.9175   -1983374.2    176958.38   -1806415.8   -2143719.2    67122.459    43488.978    47843.043    1890.5384     10648000 
  454500    306.83896   -211.80869   -1982959.2    176625.77   -1806333.4   -2143512.6    67137.007    43410.765    48082.333    1923.3571     10648000 
  455000     306.5677     -260.733   -1982792.2    176469.62   -1806322.6   -2143118.5    67010.138    43570.882    47845.701    1899.5155     10648000 
  455500    307.18798   -202.63695   -1983183.8    176826.67   -1806357.2   -2143527.7    67033.027    43454.775    47943.444    1912.5861     10648000 
  456000    306.98369   -251.66539     -1983023    176709.08   -1806313.9   -2143465.7    66926.663    43630.004    47986.009    1900.0474     10648000 
  456500    307.48512    -249.8173   -1983329.5    176997.72   -1806331.7   -2143489.5    66840.041    43278.329    48129.731    1911.9449     10648000 
  457000     307.0529    -291.9037   -1983071.9    176748.92     -1806323   -2143491.5    67018.925    43502.493    47978.189    1919.9657     10648000 
  457500    307.15076   -273.52341   -1983045.3    176805.25     -1806240   -2143541.1    67070.307    43423.282     48075.75    1926.4597     10648000 
  458000    307.25133   -280.63811   -1983159.3    176863.14   -1806296.2   -2143600.7    67071.375    43289.938     48175.92    1904.1761     10648000 
  458500      307.689   -238.12674   -1983355.2    177115.08   -1806240.1   -2143554.4    66760.721     43318.24    48203.925    1916.3006     10648000 
  459000    306.82481    -232.9255   -1982892.2    176617.62   -1806274.6   -2143229.6    66867.505    43397.902    48164.251    1907.7102     10648000 
  459500    307.10266   -272.36611   -1983036.6    176777.57     -1806259   -2143229.5    66949.628    43404.026    47946.963    1892.3641     10648000 
  460000    306.45309   -226.72696   -1982607.1    176403.65   -1806203.4   -2143087.7    67026.556    43458.775    48085.093    1910.2295     10648000 
  460500    307.03946   -215.95516   -1982966.4    176741.18   -1806225.3     -2143170     66691.33     43457.87    48135.291    1919.1072     10648000 
  461000    306.86621   -291.72076   -1982810.3    176641.46   -1806168.8   -2143280.1    67134.486    43254.841    48189.835    1890.6378     10648000 
  461500    307.66547   -263.23939     -1983325    177101.54   -1806223.5   -2143769.4    66943.012    43279.595    48311.139    1910.6558     10648000 
  462000    306.88197   -250.83244   -1982851.1    176650.53   -1806200.6   -2143617.3    67421.046    43313.296    48117.378    1914.4696     10648000 
  462500    307.42385   -253.50992   -1983171.9    176962.45   -1806209.4   -2143471.6    66979.848    43362.829    48049.926    1907.1595     10648000 
  463000    307.13557   -276.52994   -1982925.6    176796.51   -1806129.1   -2143733.3     67282.53    43508.865    48104.531    1911.7839     10648000 
  463500    306.97755   -271.05109   -1982838.8    176705.55   -1806133.3   -2143344.4    67022.757     43469.96    48102.193    1910.7029     10648000 
  464000    307.57294   -272.28628   -1983190.6    177048.27   -1806142.3   -2143362.7    66840.832    43377.716    48033.965    1919.6022     10648000 
  464500    307.21232   -263.14352     -1982967    176840.69   -1806126.3   -2143490.4    67278.751    43443.362    47896.076    1905.2202     10648000 
  465000     307.3824   -257.55169   -1983009.4    176938.59   -1806070.8   -2143648.4    67288.786    43573.249    47894.338    1882.7135     10648000 
  465500    307.73481    -301.1621   -1983271.6    177141.45   -1806130.1   -2143928.8    67120.728    43206.826    48413.304    1916.3282     10648000 
  466000    307.80337   -341.79659   -1983342.6    177180.92   -1806161.7   -2143951.4    67281.559    43258.017    48152.071    1917.2024     10648000 
  466500     308.3115   -283.47008   -1983613.8    177473.41   -1806140.4   -2143741.6    66967.824    43303.784    47952.993    1903.1801     10648000 
  467000    307.00864   -249.60977   -1982816.6    176723.44   -1806093.2   -2143554.5    67248.638    43373.377    48206.829    1909.0075     10648000 
  467500    306.85229   -274.85104   -1982678.6    176633.44   -1806045.2   -2143078.5    67170.494      43258.7     48049.85    1920.8148     10648000 
  468000    306.88794   -252.03201     -1982713    176653.96     -1806059   -2143492.7    67263.888    43330.287    48253.436     1932.141     10648000 
  468500    307.08908   -261.85521   -1982863.6    176769.74   -1806093.9   -2143331.4    67164.198    43343.331    48065.004    1895.2687     10648000 
  469000     307.5276   -314.01409   -1983095.6    177022.17   -1806073.5   -2143397.3    67137.533    43090.493    48170.377    1903.3032     10648000 
  469500    307.07826   -231.51244   -1982817.3    176763.52   -1806053.7   -2143321.2    67183.815    43358.583    48044.687    1916.8874     10648000 
  470000      307.546   -313.68653   -1983101.3    177032.76   -1806068.5   -2143498.4    67174.736    43144.319    48168.268    1909.8306     10648000 
  470500    307.25475   -258.77478   -1982917.9    176865.11   -1806052.8   -2143026.8    67006.342    43388.086    47811.247    1903.2649     10648000 
  471000    307.00065   -246.13946   -1982710.5    176718.84   -1805991.7   -2143837.4    67191.629    43743.179    48283.433    1908.6456     10648000 
  471500    307.60139   -246.36512   -1983097.5    177064.65   -1806032.8   -2143553.7    67136.893    43525.352     47897.63     1896.297     10648000 
  472000    307.67516   -289.53948   -1983104.4    177107.11   -1805997.3     -2143543    67168.939     43477.83    47869.322    1922.4611     10648000 
  472500    307.27611   -255.35741     -1982805     176877.4   -1805927.6   -2143257.9    67060.676    43485.923    48003.846    1902.5282     10648000 
  473000      307.525    -229.3175   -1982946.8    177020.67   -1805926.1   -2143506.6    67412.302    43374.931     47886.72     1885.867     10648000 
  473500    306.76205   -259.07109     -1982491     176581.5   -1805909.5   -2143385.2    67251.085    43597.532    48142.523    1903.0559     10648000 
  474000    307.02503   -300.28285   -1982610.8    176732.88     -1805878     -2143712    67557.155    43244.792     48377.52     1921.663     10648000 
  474500    307.06155   -245.21091   -1982684.3     176753.9   -1805930.4   -2143280.5    67215.551    43433.332    48033.358    1913.9273     10648000 
  475000    307.90517   -277.60338   -1983192.9    177239.51   -1805953.4   -2143921.5    67318.378    43200.462    48294.191    1915.5537     10648000 
  475500    308.04229   -287.62823   -1983291.9    177318.44   -1805973.5   -2143879.8    67065.504    43394.188    48207.025    1921.1683     10648000 
  476000    307.89867   -267.12916   -1983174.2    177235.77   -1805938.4   -2143840.2    66982.417    43584.229    48192.668    1906.6937     10648000 
  476500     307.5561   -288.40192   -1982922.7    177038.57   -1805884.2   -2143795.9    67000.498    43683.249     48273.73    1915.7413     10648000 
  477000    307.02192   -249.52412   -1982594.1    176731.09     -1805863   -2143684.3    67545.148     43514.08    48121.889    1909.1651     10648000 
  477500    307.45608   -288.72058   -1982836.3       176981   -1805855.3   -2143731.9    67469.571    43504.064    48025.366    1896.5162     10648000 
  478000     307.3946   -271.43679   -1982783.5    176945.61   -1805837.9   -2143437.7    67238.276    43379.366    48126.858    1909.7066     10648000 
  478500    308.04333   -220.17303   -1983185.5    177319.04   -1805866.4   -2143645.3    66823.735     43575.99    48157.375    1902.7909     10648000 
  479000    307.13041   -319.01418   -1982640.7    176793.53   -1805847.1   -2143515.6    67211.044    43533.714    48214.315    1915.8198     10648000 
  479500    307.98472   -294.34613   -1983171.8     177285.3   -1805886.5   -2143511.6    66965.829     43276.24     48202.56    1895.1462     10648000 
  480000    307.50509   -269.79462     -1982827    177009.21   -1805817.8   -2143459.7    67146.695    43484.731    48100.517    1900.7214     10648000 
  480500    307.58248   -298.37506   -1982864.7    177053.76   -1805810.9   -2143592.3    67239.023    43656.051    47960.728    1871.8452     10648000 
  481000    307.59344   -355.79629   -1982815.7    177060.07   -1805755.6     -2143764    67425.822    43403.814    48215.062    1903.6208     10648000 
  481500    307.99522   -234.61717   -1983086.3    177291.35   -1805794.9   -2143494.5    67259.372    43277.607    47965.518    1905.7879     10648000 
  482000    308.06285   -286.48652   -1983143.4    177330.28   -1805813.1     -2143754    67383.502    43318.439    48009.103    1899.5795     10648000 
  482500    307.75564   -277.48119     -1982926    177153.44   -1805772.5   -2143958.9    67457.298    43399.512    48283.165      1892.91     10648000 
  483000    308.18852    -255.8101   -1983186.7    177402.62   -1805784.1   -2143921.4    67208.173    43395.961    48211.022    1919.5334     10648000 
  483500    308.33378   -293.85034   -1983212.8    177486.24   -1805726.5   -2144228.2    67531.082    43318.389    48260.842    1905.0963     10648000 
  484000    307.46467   -283.53735   -1982725.8    176985.95   -1805739.8   -2143675.6    67247.887    43629.703    48158.424    1913.8766     10648000 
  484500    307.58181   -214.27362   -1982792.8    177053.38   -1805739.4     -2143748    67398.236    43320.912    48313.779    1922.3098     10648000 
  485000    307.72891   -244.45666   -1982872.8    177138.05   -1805734.7   -2143680.4     67242.61    43780.589     47876.38    1908.0181     10648000 
  485500    308.13651     -241.161   -1983121.1    177372.68   -1805748.4   -2143578.4     67319.26    43084.039    48145.202    1908.7363     10648000 
  486000    308.11066   -260.83816   -1983113.9     177357.8   -1805756.1   -2143917.4    67464.562    43243.868    48220.032    1874.9618     10648000 
  486500    307.94605   -296.46105   -1982967.9    177263.04   -1805704.8   -2144225.8    67548.203    43535.424     48250.64    1923.6308     10648000 
  487000    307.52815   -254.23212   -1982720.6    177022.49   -1805698.1   -2143584.7    67315.436     43674.08    47974.989    1899.6319     10648000 
  487500    308.45186     -266.093   -1983255.6     177554.2   -1805701.4   -2143969.8    67382.681    43524.757     47913.97    1892.8722     10648000 
  488000    308.55562   -277.73738   -1983293.8    177613.93   -1805679.8   -2143898.7    67258.372    43317.273    48129.095    1900.1645     10648000 
  488500    307.50216   -235.87107   -1982615.8    177007.53   -1805608.3   -2143717.8    67471.317     43630.02    48101.624    1898.9932     10648000 
  489000    308.57683   -239.69747   -1983316.4    177626.14   -1805690.3   -2143903.6    67201.166    43368.682    48114.705    1902.6415     10648000 
  489500    307.50874   -285.71567   -1982660.2    177011.32   -1805648.8   -2143688.3    67372.579    43610.386    48145.815    1899.3516     10648000 
  490000    307.82501   -311.45039   -1982824.5    177193.37   -1805631.1   -2143533.1    67288.883    43473.601    48025.376    1920.7639     10648000 
  490500    308.42797   -277.04016   -1983209.8    177540.45   -1805669.4   -2143720.1    67213.472    43531.436     47860.76     1904.575     10648000 
  491000    308.00977    -240.4605   -1982908.3    177299.72   -1805608.6   -2143543.4    67135.627    43612.436    47990.867    1896.1255     10648000 
  491500    308.43554   -286.01365   -1983176.4    177544.81   -1805631.6   -2143751.4    67278.808    43358.385    48037.489    1900.3591     10648000 
  492000    307.80497   -293.84879   -1982812.7    177181.83   -1805630.9   -2143386.3    67260.679    43506.672    47911.399    1894.8733     10648000 
  492500    307.44784   -348.96364   -1982536.2    176976.26   -1805559.9   -2143790.5    67466.096    43553.746    48307.888    1926.6068     10648000 
  493000    308.28048   -259.94605   -1982986.7    177455.55   -1805531.1   -2143875.7    67246.989    43439.975    48282.405    1919.6736     10648000 
  493500    308.05009   -263.87349   -1982833.1    177322.93   -1805510.1   -2143901.7    67506.929    43351.027    48310.228    1900.4113     10648000 
  494000    308.19994     -292.509   -1982954.4    177409.19   -1805545.2   -2143727.1    67518.321    43346.301    48014.542     1893.525     10648000 
  494500    308.65002   -326.71746   -1983184.5    177668.27   -1805516.2   -2144122.3    67495.219    43333.009    48177.636    1931.9308     10648000 
  495000    307.93518   -204.62335   -1982787.1    177256.79   -1805530.3   -2143951.9    67454.385    43414.861    48391.197    1904.3354     10648000 
  495500    307.88347    -273.5589   -1982735.7    177227.02   -1805508.7   -2143665.9    67393.484    43215.662    48379.465    1941.5193     10648000 
  496000    308.58039   -259.17847   -1983131.6    177628.19   -1805503.4   -2143849.2    67507.582    43220.087     48090.44    1899.4865     10648000 
  496500    307.57199   -275.36451   -1982524.8    177047.72   -1805477.1   -2143394.4    67142.728     43615.48    48193.015    1918.3609     10648000 
  497000     307.7926   -273.13586   -1982638.3    177174.71   -1805463.6   -2143593.4    67405.212    43544.574    48110.023    1895.2703     10648000 
  497500    307.55876   -262.79763   -1982483.8    177040.11   -1805443.7   -2143903.3    67728.471    43516.323    48254.585    1920.1466     10648000 
  498000     308.0197   -229.75448   -1982688.5    177305.44   -1805383.1     -2143919    67546.098    43356.853    48415.391    1912.1566     10648000 
  498500    307.92192   -281.88599   -1982679.7    177249.15   -1805430.5   -2143613.7    67459.425    43390.375    48175.083    1909.1147     10648000 
  499000    308.34903   -277.78727   -1982974.7    177495.01   -1805479.7   -2143784.2    67192.134    43358.105    48339.186    1920.0509     10648000 
  499500    308.00218   -314.62083   -1982672.5    177295.35   -1805377.1     -2143366    67471.544    43224.117    48088.834    1908.9987     10648000 
  500000    308.06763   -250.78409   -1982712.8    177333.03   -1805379.8   -2143764.4    67400.341    43431.237    48294.247    1925.7264     10648000 
  500500     307.4466   -275.55075   -1982376.8    176975.55   -1805401.2   -2143603.1    67429.929    43621.731    48242.343    1932.3108     10648000 
  501000    308.45258    -272.0956   -1982877.3    177554.62   -1805322.7   -2143887.9    67207.763    43643.254    48240.983    1918.5973     10648000 
  501500    308.51624   -276.12984   -1982977.3    177591.26     -1805386   -2143350.1    67376.538    43186.799    47889.238    1920.1839     10648000 
  502000    308.16102   -201.43854   -1982798.5    177386.79   -1805411.7   -2143449.2    67155.276    43550.069    48046.317    1899.0628     10648000 
  502500    308.21427   -249.12626     -1982757    177417.44   -1805339.6   -2143767.9    67319.197    43641.353    48129.871    1920.4783     10648000 
  503000    307.66547   -244.72418   -1982393.6    177101.54   -1805292.1   -2143742.9    67524.477    43830.327    48084.198    1910.3297     10648000 
  503500     308.6107   -257.38553   -1983012.8    177645.64   -1805367.1   -2143724.3    67062.086    43546.488    48197.766    1905.1375     10648000 
  504000    308.04319   -299.11739   -1982624.5    177318.96   -1805305.6   -2143756.1    67376.492    43661.289    48159.053    1934.7823     10648000 
  504500    308.31382   -266.53916   -1982752.6    177474.74   -1805277.8   -2143776.4    67558.497    43764.212     47801.86    1899.2918     10648000 
  505000    308.45539   -248.22499   -1982870.6    177556.24   -1805314.3   -2143932.2    67529.401    43599.628    48018.735       1913.9     10648000 
  505500    308.27122   -232.78151   -1982800.9    177450.22   -1805350.7   -2144267.7    67349.816    43660.217    48532.214    1924.5853     10648000 
  506000    308.00734   -245.35133     -1982567    177298.32   -1805268.7   -2143915.7    67493.592    43753.127    48182.413    1919.5769     10648000 
  506500    308.19592   -301.27519     -1982647    177406.88   -1805240.2   -2143975.7    67386.385    43842.918    48174.298    1925.0254     10648000 
  507000    308.73176    -305.6627   -1983021.1    177715.32   -1805305.8     -2143796    67246.616    43516.071    48106.902    1905.2609     10648000 
  507500    308.46679   -310.10832   -1982799.6     177562.8   -1805236.8   -2144164.1    67751.788     43512.85    48171.331    1928.4902     10648000 
  508000    308.41902   -305.00105   -1982757.6     177535.3   -1805222.3   -2143853.6    67380.939    43637.323    48169.147     1908.588     10648000 
  508500    308.99276   -320.68061   -1983114.6    177865.56   -1805249.1   -2143850.8    67409.885    43462.656     47964.73    1898.8814     10648000 
  509000    308.16781   -261.04983   -1982616.8     177390.7   -1805226.2     -2143462     67444.72    43523.224    47959.284    1917.9199     10648000 
  509500    308.17244   -229.92225   -1982517.2    177393.36   -1805123.9   -2143921.9    67721.549    43529.759    48243.578    1909.8082     10648000 
  510000    308.71001   -244.03347   -1982924.5     177702.8   -1805221.7   -2143589.1    67221.838    43413.884    48111.221    1917.6248     10648000 
  510500    308.53038   -267.22139   -1982782.1     177599.4   -1805182.7   -2143726.8     67506.46    43472.231    48057.407    1908.6761     10648000 
  511000    308.44543   -302.82184     -1982766     177550.5   -1805215.5   -2143703.9    67517.598    43281.387    48227.258    1911.6322     10648000 
  511500    308.59337    -257.2977   -1982813.9    177635.66   -1805178.2   -2143629.3    67219.974    43606.879    48060.133    1928.4086     10648000 
  512000    309.09086   -246.48047   -1983130.1    177922.03   -1805208.1   -2143757.6     67199.69    43393.539    48109.358    1924.9467     10648000 
  512500     307.8018   -238.14018   -1982287.4    177180.01   -1805107.4   -2143582.1    67579.047    43549.314    48241.937    1924.4354     10648000 
  513000    308.26607   -317.79891     -1982531    177447.25   -1805083.7   -2143703.8    67429.144    43534.045     48304.51    1905.1537     10648000 
  513500    308.62753   -290.14646   -1982762.7    177655.32   -1805107.4   -2143614.1    67351.229    43448.933    48140.282    1911.0087     10648000 
  514000    308.29508   -251.00133   -1982541.8    177463.96   -1805077.8   -2143536.9    67523.059    43545.911    48008.342    1917.7757     10648000 
  514500    308.32679   -231.69202   -1982560.2    177482.21     -1805078   -2143476.2     67422.18    43431.011    48156.966     1905.804     10648000 
  515000    309.05714   -207.29149   -1982985.8    177902.62   -1805083.2   -2143547.5    67354.186    43384.096    47923.226    1900.1466     10648000 
  515500    308.63787   -235.43778   -1982701.7    177661.27   -1805040.4   -2143920.4    67510.565    43664.274    48132.256    1911.6296     10648000 
  516000    308.54188   -310.69431   -1982692.5    177606.02   -1805086.5   -2143621.4    67432.541    43513.929    48070.606     1911.842     10648000 
  516500    308.06318    -277.6756   -1982328.7    177330.47   -1804998.2   -2143777.9     67489.83     43666.38    48370.578    1922.4828     10648000 
  517000    308.10572   -285.96109   -1982374.2    177354.95   -1805019.2   -2143690.1    67620.245    43686.075    48089.544    1920.0255     10648000 
  517500    308.59929   -265.14075   -1982659.4    177639.07   -1805020.3   -2143694.2    67296.808    43701.149    48128.092    1908.7802     10648000 
  518000    309.06399   -249.91862   -1982958.6    177906.56   -1805052.1   -2143601.5    67279.331    43456.261    47985.815    1921.4121     10648000 
  518500    308.85327   -216.55128   -1982767.2    177785.27   -1804981.9   -2143629.4    67354.093    43506.546    48084.985    1916.6527     10648000 
  519000    308.64825   -301.36586   -1982710.9    177667.25   -1805043.6   -2143808.3    67388.232    43625.784    48157.258    1926.1964     10648000 
  519500    308.90927   -301.65599   -1982818.5     177817.5     -1805001     -2143947    67390.282    43548.956    48263.458    1925.7437     10648000 
  520000    308.16825   -296.09445   -1982362.8    177390.95   -1804971.8   -2143887.6    67568.084    43568.103    48463.312    1925.3456     10648000 
  520500    308.93849   -260.41643     -1982830    177834.32   -1804995.7     -2143588    67504.992    43305.465    48038.431    1909.1024     10648000 
  521000    303.91844   -222.85661   -1985883.2    174944.63   -1810938.6   -2144488.2        66274    42730.857    47708.211    1891.8557     10648000 
  521500     303.5921   -259.05428   -1985637.8    174756.78     -1810881   -2144209.4    66481.051    42859.615    47346.746     1884.246     10648000 
  522000    303.82868   -284.74165   -1985854.5    174892.96   -1810961.6   -2144329.8    66141.185      43003.7    47433.034    1897.3632     10648000 
  522500    303.87461   -238.47021   -1985870.9     174919.4   -1810951.5   -2144335.8    66278.339    42675.877    47625.482    1885.1475     10648000 
  523000    303.90832   -218.31199     -1985901     174938.8   -1810962.2   -2144359.8    66189.895    42968.186     47396.31    1904.3968     10648000 
  523500    303.77348   -273.48633   -1985736.1    174861.18   -1810874.9   -2144978.4    66544.836     43000.49    47818.431    1878.5403     10648000 
  524000    304.55948   -242.09622   -1986259.3    175313.63   -1810945.7   -2144620.4     66139.97    42724.085    47623.138    1873.8889     10648000 
  524500    303.41166    -263.1215   -1985455.7    174652.91   -1810802.8   -2144332.6    66487.511    42879.652    47618.309    1891.4463     10648000 
  525000     303.7255     -275.932   -1985680.6    174833.57     -1810847   -2144390.2    66423.548    43076.841    47310.523    1898.7562     10648000 
  525500    303.94657   -261.97302   -1985767.1    174960.82   -1810806.3   -2144624.8    66523.382    42703.914    47733.954    1896.4369     10648000 
  526000    303.84062    -278.9277   -1985781.7    174899.83   -1810881.9     -2144586    66460.133    42826.602    47633.542    1884.0388     10648000 
  526500    304.30137   -247.68628   -1985967.1    175165.05     -1810802   -2144664.2    66161.467    43179.434    47464.455    1891.7449     10648000 
  527000    303.88813   -279.32399     -1985763    174927.18   -1810835.8   -2144328.9    66437.387    42923.245    47326.245    1879.0782     10648000 
  527500    304.19112   -241.52948   -1985932.7    175101.59   -1810831.1   -2144237.9    66061.517    42880.576    47471.401    1891.6673     10648000 
  528000    304.05377   -338.14101   -1985778.7    175022.53   -1810756.2   -2144298.4    66438.679    42752.827    47447.744    1880.3937     10648000 
  528500    303.84752    -236.8988   -1985692.3     174903.8   -1810788.5   -2144570.6    66378.331    43039.336    47575.501    1885.1528     10648000 
  529000    304.21029   -321.29646   -1985849.9    175112.63   -1810737.3   -2144581.5    66335.767    42865.592    47638.653    1891.5874     10648000 
  529500    303.12933   -280.47328   -1985254.7     174490.4   -1810764.3   -2144189.1    66537.886    42837.844    47662.861     1895.806     10648000 
  530000    304.53131   -273.13497   -1986081.7    175297.41   -1810784.2   -2144561.9    66139.418    42732.372    47703.157    1905.3478     10648000 
  530500    304.03434    -240.5271   -1985690.3    175011.35   -1810678.9     -2144601    66409.544    42966.501    47648.892    1885.7307     10648000 
  531000    303.30909   -234.14179   -1985276.4    174593.87   -1810682.6   -2144468.6    66240.063    43114.554    47924.648     1912.878     10648000 
  531500    304.91932   -291.82281   -1986250.1    175520.77   -1810729.3     -2144757    66419.762    42676.098    47535.438    1875.6118     10648000 
  532000    303.72194   -250.22183     -1985444    174831.52   -1810612.5   -2144568.8    66587.325    42780.601      47866.7    1890.1703     10648000 
  532500    303.91487   -270.49196   -1985611.1    174942.57   -1810668.5   -2144641.5    66564.057    42883.191    47714.465    1868.6868     10648000 
  533000    304.25805   -287.70994   -1985811.4    175140.12   -1810671.3   -2144773.5     66464.63    42686.514    47924.613    1886.2707     10648000 
  533500    303.88243   -312.48542   -1985645.5     174923.9   -1810721.6   -2144632.6    66197.013    43037.114    47862.159    1890.8212     10648000 
  534000    303.83569   -263.15996   -1985561.8    174896.99   -1810664.8   -2144699.2    66232.433    43249.061    47757.083    1898.8776     10648000 
  534500    304.88631   -285.21224   -1986137.4    175501.76   -1810635.7   -2145042.2    66603.376    42687.908    47727.709    1885.7337     10648000 
  535000    303.59685    -275.4554   -1985367.6    174759.51   -1810608.1   -2144617.8    66367.169    43249.234    47738.521    1895.1822     10648000 
  535500    304.00297   -264.14219   -1985636.7    174993.29   -1810643.4   -2144493.9    66428.867    43015.167    47533.994    1879.1673     10648000 
  536000    303.62017    -295.9745   -1985384.3    174772.94   -1810611.3   -2144572.5    66183.249    43130.059    47972.803    1902.1158     10648000 
  536500    304.42199   -264.00442   -1985853.2    175234.49   -1810618.7   -2144804.9    66504.307    42929.982    47640.528    1876.8919     10648000 
  537000     303.8632   -269.20269   -1985569.9    174912.83   -1810657.1   -2144702.7    66252.409    43155.503    47828.081    1896.8219     10648000 
  537500    304.17275   -238.15521   -1985732.8    175091.02   -1810641.8     -2144940     66489.62    43089.565    47739.715    1888.2326     10648000 
  538000    304.41308   -243.12051     -1985862    175229.36   -1810632.7   -2144946.1    66474.942    43022.658    47683.866    1902.6213     10648000 
  538500    303.85259   -245.83422   -1985514.5    174906.72   -1810607.8   -2144806.9    66370.345    43191.226    47828.518    1902.3552     10648000 
  539000    304.58663    -253.0068   -1985927.2    175329.26     -1810598   -2144679.1    66326.847    42835.626     47708.27    1881.1035     10648000 
  539500    304.31096   -214.10026   -1985790.2    175170.57   -1810619.6   -2144555.3    66268.684    42875.818     47725.96     1894.611     10648000 
  540000    303.94554   -299.58123   -1985513.5    174960.23   -1810553.3     -2144786    66796.477    42704.962    47866.449    1904.6185     10648000 
  540500     304.5322   -217.95258     -1985882    175297.93   -1810584.1   -2144858.1    66407.736    43029.256    47649.267    1889.7999     10648000 
  541000    304.55644   -247.52848     -1985888    175311.88   -1810576.1   -2144924.3    66097.213    43169.049     47871.29    1898.7679     10648000 
  541500    304.07544   -295.19112   -1985576.2       175035   -1810541.2   -2144716.9    66562.877    43254.615    47432.393    1890.7634     10648000 
  542000     304.3051   -223.64603   -1985671.8     175167.2   -1810504.6   -2144990.6    66691.033    42981.016    47742.137    1904.6118     10648000 
  542500    303.64174   -282.96416   -1985292.8    174785.35   -1810507.4   -2144814.3    66848.069     43129.46    47650.654    1893.2904     10648000 
  543000    304.30017   -274.43874   -1985686.9    175164.36   -1810522.5   -2145084.7    66642.242    43050.773    47804.234    1900.5741     10648000 
  543500    304.64388   -287.58736   -1985891.7    175362.21   -1810529.5   -2145075.8    66747.501    42847.874    47711.055    1877.6556     10648000 
  544000    304.36095   -291.53628   -1985631.1    175199.35   -1810431.7     -2145211    67040.446      42966.7    47685.143    1887.6225     10648000 
  544500     304.2244   -271.38175   -1985572.3    175120.75   -1810451.5   -2144948.4     66644.61    43187.329    47662.366    1881.8664     10648000 
  545000    304.60492      -254.08   -1985803.3    175339.79   -1810463.5   -2144736.2    66535.692     43189.53    47328.062     1879.598     10648000 
  545500    304.32482   -288.88861   -1985652.8    175178.56   -1810474.2     -2144871    66446.192    43221.202    47653.633    1897.2379     10648000 
  546000    304.24184   -197.86793   -1985539.9    175130.79   -1810409.1   -2144778.4    66248.898    43036.505    48036.915    1916.1693     10648000 
  546500    304.30147   -231.08714   -1985631.8    175165.11   -1810466.7   -2144594.4    66398.393    43233.352    47457.924    1872.9412     10648000 
  547000    304.28922   -264.74139   -1985558.2    175158.06   -1810400.1   -2144901.6    66605.045    43214.806    47638.158    1885.3949     10648000 
  547500    304.61539   -264.42768   -1985759.8    175345.81     -1810414   -2144814.6    66428.688    43074.236    47649.435    1902.4157     10648000 
  548000    304.12798   -214.26424   -1985474.2    175065.25   -1810408.9   -2144656.2    66595.794    43219.383      47483.9    1882.9132     10648000 
  548500     304.6167    -294.3603   -1985792.5    175346.57   -1810445.9   -2144862.9    66923.927    42888.427    47386.878    1871.1744     10648000 
  549000    304.36531   -317.47901   -1985592.9    175201.86   -1810391.1   -2144914.4    66849.738    42878.016    47694.743    1899.0167     10648000 
  549500    304.37269   -240.26434   -1985642.2    175206.11   -1810436.1   -2144606.7    66636.382    42944.846    47501.984    1881.3274     10648000 
  550000    304.36499   -212.40371   -1985628.7    175201.68   -1810427.1   -2144942.4     66617.16    43015.469    47777.805    1903.2022     10648000 
  550500    303.99855   -306.57918   -1985399.4    174990.74   -1810408.6   -2144644.3    66566.143    43054.109    47735.569    1889.0946     10648000 
  551000    304.59425   -282.72524   -1985654.6    175333.65   -1810320.9   -2145075.3    66789.567    42950.302    47790.812    1890.0727     10648000 
  551500    304.53088   -273.31055   -1985654.2    175297.17     -1810357   -2144860.7    66726.222    42844.493    47744.672    1891.1976     10648000 
  552000    304.74942   -252.72377     -1985774    175422.97     -1810351   -2144916.4    66932.217    42835.345     47476.84    1898.0217     10648000 
  552500    304.59436   -261.30257   -1985677.5    175333.71   -1810343.8   -2145131.4    66584.234    43270.138    47707.488    1892.0767     10648000 
  553000    304.49899   -285.42625     -1985606    175278.81   -1810327.2   -2144865.9    66690.425    43006.614    47668.904    1893.9992     10648000 
  553500    304.77656   -250.87357   -1985796.7    175438.59   -1810358.1   -2144639.1    66306.246    42869.596    47761.546    1905.0309     10648000 
  554000    305.07241   -249.18842     -1985983    175608.89   -1810374.1     -2144614    66335.576    42821.055    47594.464    1879.9688     10648000 
  554500    304.28075   -230.18386   -1985472.4    175153.19   -1810319.2   -2144562.8    66568.056    43031.043    47589.845    1901.4073     10648000 
  555000    304.49611   -227.85516   -1985534.3    175277.15   -1810257.1   -2144880.6    66646.981    43056.543    47750.726    1892.0855     10648000 
  555500    304.62488   -291.73261   -1985625.7    175351.28   -1810274.4   -2144908.3    66662.095    43197.946    47540.317    1882.3279     10648000 
  556000    304.89951   -255.60578   -1985767.5    175509.36   -1810258.1   -2144909.4    66643.135     43065.11    47548.789    1884.8927     10648000 
  556500    304.91497   -218.63283   -1985764.7    175518.26   -1810246.4   -2145125.4    66520.296    43226.507      47725.4    1888.4966     10648000 
  557000    304.53341    -271.3503   -1985531.1    175298.62   -1810232.5   -2144995.5    66878.342    43013.279    47696.916    1875.7872     10648000 
  557500    304.97858   -237.64476   -1985816.9    175554.88     -1810262   -2144654.9    66543.331    43022.501    47411.248    1860.9157     10648000 
  558000    304.56642   -263.99722   -1985549.1    175317.63   -1810231.4     -2144966    66732.915    43109.246    47680.628    1894.1253     10648000 
  558500    304.54735   -311.44657   -1985407.9    175306.