LAMMPS (14 Dec 2021)
OMP_NUM_THREADS environment is not set. Defaulting to 1 thread. (src/comm.cpp:98)
  using 1 OpenMP thread(s) per MPI task
package omp 0
using multi-threaded neighbor list subroutines
package omp 1
using multi-threaded neighbor list subroutines


# ----------------- Init Section -----------------

include "system.in.init"
    # Default styles and settings for AMBER based force-fields:
    units           real
    atom_style      full
    bond_style      hybrid harmonic
    angle_style     hybrid harmonic
    dihedral_style  hybrid fourier
    improper_style  hybrid cvff
    pair_style      hybrid lj/charmm/coul/long 9.0 10.0 10.0
    kspace_style    pppm 0.0001

    # NOTE: If you do not want to use long-range coulombic forces,
    #       comment out the two lines above and uncomment this line:
    # pair_style      hybrid lj/charmm/coul/charmm 9.0 10.0

    pair_modify     mix arithmetic
    special_bonds   amber


# ----------------- Atom Definition Section -----------------

read_data "cleanedsystem.data"
Reading data file ...
  orthogonal box = (0 0 0) to (220 220 220)
  4 by 4 by 4 MPI processor grid
  reading atoms ...
  193113 atoms
  scanning bonds ...
  3 = max bonds/atom
  scanning angles ...
  3 = max angles/atom
  scanning dihedrals ...
  9 = max dihedrals/atom
  scanning impropers ...
  2 = max impropers/atom
  reading bonds ...
  193113 bonds
  reading angles ...
  253560 angles
  reading dihedrals ...
  386226 dihedrals
  reading impropers ...
  49014 impropers
Finding 1-2 1-3 1-4 neighbors ...
  special bond factors lj:    0        0        0.5     
  special bond factors coul:  0        0        0.8333333333333334
     3 = max # of 1-2 neighbors
     6 = max # of 1-3 neighbors
    11 = max # of 1-4 neighbors
    13 = max # of special neighbors
  special bonds CPU = 0.014 seconds
  read_data CPU = 3.533 seconds


# ----------------- Settings Section -----------------

include "cleanedsystem.in.settings"
pair_coeff 1 1 lj/charmm/coul/long 0.0860 3.39966950842 # OPLS
pair_coeff 2 2 lj/charmm/coul/long 0.2100 3.39966950842 # cp C DLM 11/2007 well depth from OPLS replacing 0.0860
pair_coeff 3 3 lj/charmm/coul/long 0.0860 3.39966950842 # sp2 atom in the middle of C=CD-CD=C
pair_coeff 4 4 lj/charmm/coul/long 0.0860 3.39966950842 # OPLS
pair_coeff 5 5 lj/charmm/coul/long 0.0150 2.59964245953 # Spellmeyer
pair_coeff 6 6 lj/charmm/coul/long 0.0157 1.06907846177 # !Ferguson base pair geom.
pair_coeff 7 7 lj/charmm/coul/long 0.0000 0.0 # OPLS Jorgensen, JACS,110,(1988),1657
pair_coeff 8 8 lj/charmm/coul/long 0.1700 3.24999852378 # OPLS
pair_coeff 9 9 lj/charmm/coul/long 0.1700 3.24999852378 # OPLS
pair_coeff 10 10 lj/charmm/coul/long 0.1700 3.24999852378 # OPLS
pair_coeff 11 11 lj/charmm/coul/long 0.2100 2.95992190115 # OPLS
pair_coeff 12 12 lj/charmm/coul/long 0.2104 3.06647338784 # OPLS
bond_coeff 1 harmonic 404.1 1.4400 # SOUECE3 1
bond_coeff 2 harmonic 777.0 1.1660 # SOURCE2 9 0.0052
bond_coeff 3 harmonic 357.2 1.4800 # SOUECE3 1
bond_coeff 4 harmonic 623.6 1.2244 # SOURCE4 15 0.0036
bond_coeff 5 harmonic 425.4 1.3330 # SOURCE1 53 0.0000
bond_coeff 6 harmonic 478.4 1.3870 # SOURCE1 6228 0.0147
bond_coeff 7 harmonic 344.3 1.0870 # SOURCE3 1496 0.0045
bond_coeff 8 harmonic 551.6 1.3030 # SOURCE4 7 0.0058
bond_coeff 9 harmonic 372.3 1.4220 # SOURCE3 9 0.0098
bond_coeff 10 harmonic 449.0 1.3640 # SOURCE1 137 0.0085
bond_coeff 11 harmonic 349.7 1.4870 # SOURCE1 480 0.0055
bond_coeff 12 harmonic 478.2 1.3450 # SOURCE1 1235 0.0215
bond_coeff 13 harmonic 648.0 1.2140 # SOURCE1 3682 0.0165
bond_coeff 14 harmonic 375.5 1.0290 # SOURCE3 108 0.0096
bond_coeff 15 harmonic 410.2 1.0090 # SOURCE3 149 0.0098
bond_coeff 16 harmonic 401.2 1.0140 # SOURCE3 209 0.0091
bond_coeff 17 harmonic 369.6 0.9740 # SOURCE3 367 0.0105
angle_coeff 1 harmonic 76.69 121.23 # SOURCE4 6 0.0958
angle_coeff 2 harmonic 65.86 120.00 # SOURCE3 1
angle_coeff 3 harmonic 64.69 120.60 # SOURCE3 1
angle_coeff 4 harmonic 67.18 119.97 # SOURCE3 1969 0.3480
angle_coeff 5 harmonic 48.46 120.01 # SOURCE3 2980 0.2511
angle_coeff 6 harmonic 70.95 119.57 # SOURCE3 1
angle_coeff 7 harmonic 67.97 119.89 # SOURCE3 18 0.2095
angle_coeff 8 harmonic 69.34 120.13 # SOURCE3 193 0.6341
angle_coeff 9 harmonic 64.64 120.14 # SOURCE3 40 0.4788
angle_coeff 10 harmonic 68.47 115.14 # SOURCE4 571 1.4648
angle_coeff 11 harmonic 68.67 123.44 # SOURCE3 18 2.5574
angle_coeff 12 harmonic 75.83 122.03 # SOURCE3 221 2.3565
angle_coeff 13 harmonic 50.01 120.00 # SOURCE3 1
angle_coeff 14 harmonic 47.36 115.94 # SOURCE4 537 1.8890
angle_coeff 15 harmonic 64.29 123.71 # SOURCE3 10 3.8159
angle_coeff 16 harmonic 49.21 118.46 # SOURCE3 157 2.4094
angle_coeff 17 harmonic 49.08 116.13 # SOURCE4 1780 1.2853
angle_coeff 18 harmonic 49.91 108.98 # SOURCE3 6 2.2379
dihedral_coeff 1 fourier 1 1.0 2 180.0 # optimized by Junmei Wang, Jan-2013
dihedral_coeff 2 fourier 1 2.5 2 180.0 # AA,NMA (no c-n3, c-n4, c-nh)
dihedral_coeff 3 fourier 1 0.0 2 180.0 #
dihedral_coeff 4 fourier 1 0.7 2 180.0 # optimized by Junmei Wang, March 2013
dihedral_coeff 5 fourier 1 1.05 2 180.0 # parm99
dihedral_coeff 6 fourier 1 3.625 2 180.0 # intrpol.bsd.on C6H6
dihedral_coeff 7 fourier 1 0.45 2 180.0 #
dihedral_coeff 8 fourier 1 0.0 3 180.0 #
dihedral_coeff 9 fourier 1 1.05 2 180.0 #
dihedral_coeff 10 fourier 2 2.5 2 180.0 2.0 1 0.0 # JCC,7,(1986),230
improper_coeff 1 cvff 10.5 -1 2 # JCC,7,(1986),230
improper_coeff 2 cvff 1.1 -1 2 # bsd.on C6H6 nmodes
improper_coeff 3 cvff 1.1 -1 2 # JCC,7,(1986),230
improper_coeff 4 cvff 1.1 -1 2 #


# ----------------- Run Section -----------------

neighbor	    2.0 bin
neigh_modify	every 1 delay 0 check yes
timestep        2.0
dielectric      10

dump		    min all xtc 5000 min.xtc
thermo_style    custom step temp press pe ke etotal epair ebond eangle edihed eimp vol
thermo          5000

# Minimization
min_style       sd
minimize 	    0 1e-8 100000 100000
PPPM initialization ...
  using 12-bit tables for long-range coulomb (src/kspace.cpp:340)
  G vector (1/distance) = 0.14522843
  grid = 32 32 32
  stencil order = 5
  estimated absolute RMS force accuracy = 0.04076337
  estimated relative force accuracy = 0.00012275768
  using double precision FFTW3
  3d grid and FFT values/proc = 2197 512
  generated 66 of 66 mixed pair_coeff terms from arithmetic mixing rule
Hybrid pair style last /omp style lj/charmm/coul/long
Last active /omp style is kspace_style pppm/omp
Neighbor list info ...
  update every 1 steps, delay 0 steps, check yes
  max neighbors/atom: 2000, page size: 100000
  master list distance cutoff = 12
  ghost atom cutoff = 12
  binsize = 6, bins = 37 37 37
  1 neighbor lists, perpetual/occasional/extra = 1 0 0
  (1) pair lj/charmm/coul/long, perpetual
      attributes: half, newton on, omp
      pair build: half/bin/newton/omp
      stencil: half/bin/3d
      bin: standard
Per MPI rank memory allocation (min/avg/max) = 17.37 | 17.76 | 17.91 Mbytes
Step Temp Press PotEng KinEng TotEng E_pair E_bond E_angle E_dihed E_impro Volume 
       0            0   -3547.5983     300455.8            0     300455.8    217546.81    78623.545    4283.6519    1.6470748   0.14547781     10648000 
    5000            0   -299.55616   -33792.899            0   -33792.899    -38740.69    3098.1307    738.85547     1094.922    15.882549     10648000 
   10000            0   -327.15842   -88001.644            0   -88001.644    -92789.92    3008.5881    726.60402    1037.5878    15.496393     10648000 
   15000            0   -330.54682   -125015.42            0   -125015.42    -129643.1    2923.8852    719.07046    969.38704    15.337765     10648000 
   20000            0   -323.38886   -141347.11            0   -141347.11   -145892.68    2877.2637    716.08522    936.67509    15.538674     10648000 
   25000            0   -314.35573   -151811.64            0   -151811.64   -156309.94    2843.5611    714.88959    924.01695    15.832186     10648000 
   30000            0   -304.89114    -160252.2            0    -160252.2    -164711.9    2813.7077    713.83893    916.05504    16.099155     10648000 
   35000            0   -294.55816   -167147.09            0   -167147.09   -171574.97    2787.9057    713.40646    910.19051    16.371659     10648000 
   40000            0   -283.16631   -173155.31            0   -173155.31   -177561.91    2762.4185    712.09931    915.43711    16.648629     10648000 
   45000            0   -265.90889   -181250.09            0   -181250.09   -185631.65    2728.1927    709.50751    926.85341    17.003965     10648000 
   50000            0   -249.71646   -188457.89            0   -188457.89   -192809.09    2696.6047    708.82361    928.39911    17.369156     10648000 
   50038            0   -249.59814   -188504.45            0   -188504.45   -192855.15    2696.1012      708.798    928.43525    17.371366     10648000 
Loop time of 1762.38 on 64 procs for 50038 steps with 193113 atoms

98.8% CPU use with 64 MPI tasks x 1 OpenMP threads

Minimization stats:
  Stopping criterion = max force evaluations
  Energy initial, next-to-last, final = 
      300455.796875452  -188503.214782613   -188504.44682046
  Force two-norm initial, final = 92321.077 88.580684
  Force max component initial, final = 35330.986 37.740177
  Final line search alpha, max atom move = 0.014263796 0.53831818
  Iterations, force evaluations = 50038 100001

MPI task timing breakdown:
Section |  min time  |  avg time  |  max time  |%varavg| %total
---------------------------------------------------------------
Pair    | 664.25     | 893.84     | 1165.7     | 400.6 | 50.72
Bond    | 103.75     | 125.12     | 149.29     |  86.3 |  7.10
Kspace  | 383.67     | 678.5      | 929.09     | 493.8 | 38.50
Neigh   | 0.53964    | 0.54363    | 0.547      |   0.2 |  0.03
Comm    | 37.097     | 39.076     | 42.489     |  18.8 |  2.22
Output  | 0.19534    | 0.19575    | 0.21957    |   0.7 |  0.01
Modify  | 3.776      | 7.368      | 8.8694     |  57.5 |  0.42
Other   |            | 17.75      |            |       |  1.01

Nlocal:        3017.39 ave        3650 max        2331 min
Histogram: 2 0 3 12 10 17 11 3 5 1
Nghost:         5729.3 ave        7091 max        4817 min
Histogram: 3 10 12 6 11 10 8 2 0 2
Neighs:         242645 ave      329562 max      177774 min
Histogram: 3 8 9 15 5 8 7 6 1 2

Total # of neighbors = 15529256
Ave neighs/atom = 80.415384
Ave special neighs/atom = 8.4331764
Neighbor list builds = 42
Dangerous builds = 0
write_data 	    min.data
System init for write_data ...
PPPM initialization ...
  using 12-bit tables for long-range coulomb (src/kspace.cpp:340)
  G vector (1/distance) = 0.14522843
  grid = 32 32 32
  stencil order = 5
  estimated absolute RMS force accuracy = 0.04076337
  estimated relative force accuracy = 0.00012275768
  using double precision FFTW3
  3d grid and FFT values/proc = 2197 512
  generated 66 of 66 mixed pair_coeff terms from arithmetic mixing rule
Hybrid pair style last /omp style lj/charmm/coul/long
Last active /omp style is kspace_style pppm/omp

velocity all create 300.0 123456 dist gaussian
dump		    pre_polym all xtc 5000 pre_polym.xtc

# 500 ps NVT (0.5 ns total)
fix 1 all nve
fix 3 all temp/rescale 1 300.0 300.0 1.0 1.0
run     250000
PPPM initialization ...
  using 12-bit tables for long-range coulomb (src/kspace.cpp:340)
  G vector (1/distance) = 0.14522843
  grid = 32 32 32
  stencil order = 5
  estimated absolute RMS force accuracy = 0.04076337
  estimated relative force accuracy = 0.00012275768
  using double precision FFTW3
  3d grid and FFT values/proc = 2197 512
  generated 66 of 66 mixed pair_coeff terms from arithmetic mixing rule
Hybrid pair style last /omp style lj/charmm/coul/long
Last active /omp style is kspace_style pppm/omp
Per MPI rank memory allocation (min/avg/max) = 18.47 | 18.95 | 19.4 Mbytes
Step Temp Press PotEng KinEng TotEng E_pair E_bond E_angle E_dihed E_impro Volume 
   50038          300    491.76267   -188504.45    172689.06    -15815.39   -192855.15    2696.1012      708.798    928.43525    17.371366     10648000 
   55000    299.93816   -78.060658   -80585.579    172653.46    92067.882   -210990.13    51890.915    38131.033    38793.156     1589.444     10648000 
   60000     299.8176   -131.71256    -96178.97    172584.06    76405.091   -234370.42    57054.901     40277.54    39155.732    1703.2803     10648000 
   65000    300.35206   -123.80597   -105128.33    172891.71    67763.383   -247095.01    60279.552    40794.041    39167.641    1725.4471     10648000 
   70000    300.09427   -84.112866   -111317.02    172743.32    61426.296   -255034.83    61770.221    41146.342    39063.136    1738.1082     10648000 
   75000    299.99137   -83.124284   -115510.07    172684.09    57174.014    -260318.1    62839.005    41398.283    38813.358    1757.3826     10648000 
   80000    299.60679   -85.619975   -117818.23    172462.72    54644.482   -264007.46    64038.817    41539.357     38853.32    1757.7356     10648000 
   85000    300.87437   -90.459047   -121119.62    173192.37     52072.75   -267477.05    64311.902    41413.451     38870.93    1761.1503     10648000 
   90000    299.36073   -89.369406    -122462.8    172321.07    49858.275   -269397.01    64503.421    41886.377    38785.145     1759.272     10648000 
   95000    299.32716   -42.425732   -124109.63    172301.75     48192.12   -271154.87     64525.51    41912.254    38838.856    1768.6186     10648000 
  100000    299.89724   -109.56115   -125595.15    172629.91    47034.755   -272725.24    64816.428    41952.369    38612.731    1748.5558     10648000 
  105000    299.88473   -57.406772   -126492.72     172622.7    46129.978   -273595.42    64917.733    41893.509    38525.562    1765.8875     10648000 
  110000     299.8839   -130.30719   -126993.41    172622.22    45628.815   -274661.85     65227.26    41929.915    38757.731    1753.5393     10648000 
  115000    299.87602    -138.4339   -128402.04    172617.69    44215.655   -275607.75    65146.837    41696.543     38605.29    1757.0475     10648000 
  120000    299.96471    -127.3001   -128950.14    172668.74    43718.603    -276201.4    64920.517    41824.245    38723.425    1783.0682     10648000 
  125000    299.60784   -82.578382   -129693.49    172463.32    42769.824   -277157.29    64991.645    41967.261    38714.117    1790.7749     10648000 
  130000    299.94679   -107.20277   -129920.91    172658.43    42737.522   -277787.76    65191.685    42013.529    38879.186    1782.4575     10648000 
  135000    300.21725   -71.395288   -130279.94    172814.12     42534.17   -277769.21    65114.032    42155.752    38448.743    1770.7337     10648000 
  140000    300.26129     -141.223   -130982.99    172839.46    41856.469   -278949.89    65479.621    42060.047    38654.407    1772.8253     10648000 
  145000    299.76475    -121.0612   -130848.19    172553.64    41705.455   -279180.26        65708    42113.854    38755.907    1754.3087     10648000 
  150000    300.42558   -102.30229   -131633.35    172934.03    41300.679   -279276.55    65403.011    41724.267    38747.328    1768.5873     10648000 
  155000    300.93002   -98.296208   -132250.81    173224.41    40973.601   -279745.83    65270.572    41877.041     38587.96    1759.4555     10648000 
  160000    299.18425    -69.71174   -132075.98    172219.49    40143.506   -279951.94    65485.404    41786.453    38830.098    1774.0009     10648000 
  165000    300.40545   -35.992381   -132352.68    172922.45    40569.767   -280294.54    65244.269    42008.556    38905.476    1783.5619     10648000 
  170000    300.32956   -107.73122   -132884.12    172878.76    39994.642   -280579.28    65407.856    41820.657    38706.284    1760.3679     10648000 
  175000    300.30642   -57.668386   -133242.09    172865.44     39623.35   -280889.93    65320.542     41835.52    38718.833    1772.9419     10648000 
  180000    300.28754   -124.00164   -133825.04    172854.57    39029.529   -281570.04    65381.277    41881.772    38718.444    1763.5049     10648000 
  185000    299.39537   -67.281794   -132578.71    172341.01      39762.3   -280931.14    65325.373    42117.006    39126.664    1783.3818     10648000 
  190000    299.40486   -61.155925   -134038.25    172346.48    38308.225   -281706.16    65315.818    41927.737    38668.429    1755.9234     10648000 
  195000     300.6153   -42.239835    -133753.5    173043.24    39289.741   -281797.79    65554.668    41961.085    38760.143    1768.3901     10648000 
  200000    300.10536   -70.979019   -133931.44    172749.71    38818.269   -281955.05    65782.019    41835.705    38639.436    1766.4537     10648000 
  205000    299.58848   -93.175489   -133898.67    172452.17    38553.503   -281843.21    65646.469    41883.749    38645.385    1768.9393     10648000 
  210000    300.25534   -91.451853   -134426.11    172836.04    38409.927   -282271.34    65129.404     42070.33    38868.173    1777.3268     10648000 
  215000    299.59953   -44.849398   -134206.15    172458.54     38252.39    -282265.1     65406.32    41957.699    38914.072    1780.8679     10648000 
  220000    299.82448   -69.986803   -134694.14    172588.02    37893.881   -282653.41    65064.094    42172.146    38932.539    1790.4914     10648000 
  225000    300.31022   -116.73726    -134792.3    172867.63    38075.331   -282397.33     65214.75    41954.128     38669.47    1766.6837     10648000 
  230000    299.98279   -123.65149   -134923.32    172679.15    37755.833   -282923.77    65390.136    42021.631    38824.222    1764.4617     10648000 
  235000    299.50894   -104.98082   -135037.49    172406.39    37368.903   -282830.02    65408.303    41924.018    38694.879    1765.3301     10648000 
  240000     299.5572   -89.278322    -134565.5    172434.17    37868.669   -282616.74    65615.341    42045.182    38623.153    1767.5636     10648000 
  245000    300.19207   -27.987618   -135334.63    172799.62    37464.988   -282835.56    65285.612    41874.201    38585.992    1755.1265     10648000 
  250000    300.68826   -73.797007   -135359.45    173085.24     37725.79   -282959.94    65382.976    41980.734     38475.02    1761.7576     10648000 
  255000    299.55039   -63.065617   -135139.74    172430.25    37290.508   -283433.77    65439.036    42023.743    39025.188    1806.0672     10648000 
  260000     300.1291   -84.540185   -135474.81    172763.37    37288.566   -283268.93    65522.378    42009.418    38492.674    1769.6511     10648000 
  265000    300.35111   -73.414582   -135629.89    172891.17    37261.277   -283236.71    65311.388    41880.993    38645.775    1768.6635     10648000 
  270000    300.79979   -83.338744   -136558.66    173149.44    36590.778   -283855.17    65208.841    41779.481    38540.533    1767.6527     10648000 
  275000    299.68724   -82.900192   -136177.92    172509.02    36331.106   -284063.49    65645.578    41716.562    38755.456    1767.9733     10648000 
  280000    300.10764   -84.438057   -135971.25    172751.02     36779.77   -283722.21    65290.332     41927.19    38782.131    1751.3082     10648000 
  285000    299.86901   -47.504952   -136294.55    172613.65    36319.103   -283891.55     65232.73    41873.596    38722.103    1768.5678     10648000 
  290000    300.27974   -21.564757    -135980.6    172850.08    36869.488   -283791.28    65577.939    41657.944    38797.503    1777.2957     10648000 
  295000    300.08964    -133.2676   -136251.74    172740.66    36488.919   -284391.83    65755.433    41966.828    38641.869    1775.9631     10648000 
  300000     299.2691   -109.56225   -136200.23    172268.33    36068.096   -284416.45    65469.761    42239.235    38738.857    1768.3618     10648000 
  300038    300.42699   -107.35192   -136392.85    172934.85    36541.999   -284489.94    65472.405    42118.254    38727.299    1779.1356     10648000 
Loop time of 27017.8 on 64 procs for 250000 steps with 193113 atoms

Performance: 1.599 ns/day, 15.010 hours/ns, 9.253 timesteps/s
98.7% CPU use with 64 MPI tasks x 1 OpenMP threads

MPI task timing breakdown:
Section |  min time  |  avg time  |  max time  |%varavg| %total
---------------------------------------------------------------
Pair    | 161.39     | 5610.1     | 19343      |7289.5 | 20.76
Bond    | 24.084     | 253.02     | 760.08     |1367.7 |  0.94
Kspace  | 3719.1     | 17349      | 22748      |4112.5 | 64.21
Neigh   | 2758.5     | 2764.4     | 2772.6     |   6.8 | 10.23
Comm    | 181.8      | 732.49     | 1159.4     |1050.4 |  2.71
Output  | 1.9142     | 1.9153     | 1.948      |   0.3 |  0.01
Modify  | 86.443     | 265.21     | 1051.5     |1861.3 |  0.98
Other   |            | 42         |            |       |  0.16

Nlocal:        3017.39 ave       12564 max           0 min
Histogram: 34 5 3 2 4 5 7 3 0 1
Nghost:        5787.17 ave       18578 max           0 min
Histogram: 18 13 6 4 4 6 8 3 0 2
Neighs:         771132 ave 3.56026e+06 max           0 min
Histogram: 36 4 4 2 3 7 6 1 0 1

Total # of neighbors = 49352472
Ave neighs/atom = 255.56266
Ave special neighs/atom = 8.4331764
Neighbor list builds = 30726
Dangerous builds = 0
unfix 1
unfix 3

write_restart pre_polym.restart
System init for write_restart ...
PPPM initialization ...
  using 12-bit tables for long-range coulomb (src/kspace.cpp:340)
  G vector (1/distance) = 0.14522843
  grid = 32 32 32
  stencil order = 5
  estimated absolute RMS force accuracy = 0.04076337
  estimated relative force accuracy = 0.00012275768
  using double precision FFTW3
  3d grid and FFT values/proc = 2197 512
  generated 66 of 66 mixed pair_coeff terms from arithmetic mixing rule
Hybrid pair style last /omp style lj/charmm/coul/long
Last active /omp style is kspace_style pppm/omp

# 500 ps NPT (1 ns total)
fix 3 all npt temp 300 300 100 iso 1 1 100
run           250000
PPPM initialization ...
  using 12-bit tables for long-range coulomb (src/kspace.cpp:340)
  G vector (1/distance) = 0.14522843
  grid = 32 32 32
  stencil order = 5
  estimated absolute RMS force accuracy = 0.04076337
  estimated relative force accuracy = 0.00012275768
  using double precision FFTW3
  3d grid and FFT values/proc = 2197 512
  generated 66 of 66 mixed pair_coeff terms from arithmetic mixing rule
Hybrid pair style last /omp style lj/charmm/coul/long
Last active /omp style is kspace_style pppm/omp
Per MPI rank memory allocation (min/avg/max) = 19.67 | 27.52 | 46.06 Mbytes
Step Temp Press PotEng KinEng TotEng E_pair E_bond E_angle E_dihed E_impro Volume 
  300038    300.42699   -107.35192   -136392.85    172934.85    36541.999   -284489.94    65472.405    42118.254    38727.299    1779.1356     10648000 
  305000     299.3912   -5.6805296   -138663.67    172338.61    33674.944   -285858.07    65293.863    41874.614    38280.729    1745.1903    8364691.6 
  310000    299.20268   -1.3648769   -138772.52     172230.1    33457.573   -285857.41    64978.438    41583.058    38750.364     1773.028    6696151.4 
  315000    300.91612    60.915468   -139187.68     173216.4    34028.722   -286541.35    65083.664    41678.254    38835.653    1756.1037    5588365.2 
  320000    300.62164    73.487262   -139784.67    173046.89    33262.225   -287178.38    64812.256    42112.763    38688.382    1780.3117    4904178.4 
  325000    300.68621    16.986525   -140858.96    173084.06      32225.1   -288170.16    64818.856    41882.007    38859.197    1751.1469    4421178.3 
  330000    300.14654   -44.320523   -141881.26    172773.41    30892.147   -289297.37     65069.46     41740.38    38828.884    1777.3809    4052173.2 
  335000    299.64931    85.053948   -142596.42    172487.19    29890.767   -290057.13    64991.899    41897.501    38810.985    1760.3199    3788553.8 
  340000    299.34108    58.241698   -143640.51    172309.76    28669.249   -291011.02     64538.33     42256.72    38803.746    1771.7133    3589456.3 
  345000    300.61911    43.450233   -144356.56    173045.43    28688.872   -291752.17    65060.501     41825.62    38738.431    1771.0543    3408748.7 
  350000    299.34584    168.27018   -145065.11     172312.5    27247.388   -292685.32    65026.317    42035.791    38797.204    1760.8982    3281661.1 
  355000    299.39066   -112.13988   -145465.42     172338.3    26872.884   -293439.99    65276.511    42016.807    38902.658    1778.5907    3173908.9 
  360000    299.92749     18.62901   -146163.53    172647.32     26483.79   -294026.62    65521.934    41491.882    39070.147    1779.1278    3086800.3 
  365000    300.01611   -198.07257   -146361.26    172698.33    26337.072   -294482.07     65386.38    42053.882    38910.157    1770.3947    3023531.2 
  370000     299.0154    139.97208   -146953.29    172122.29    25169.001   -294635.51    65460.031    41859.631    38595.076    1767.4764      2969515 
  375000    300.55592   -12.157416   -147169.02    173009.06    25840.042   -294935.56    65358.016     41893.26    38741.916    1773.3444    2906542.9 
  380000    299.70096   -219.37126   -147529.75    172516.92    24987.168   -295588.66    65231.151    42101.385    38957.579    1768.7905    2861498.7 
  385000    300.13867    187.97242   -147958.76    172768.88    24810.119   -295794.56    64987.449    42028.708    39037.954    1781.6852    2827002.6 
  390000    299.55292     104.6954   -147680.25     172431.7    24751.452    -295586.7    65489.855     41885.36    38755.685    1775.5429    2783896.2 
  395000    300.38016   -156.47995   -148077.98    172907.89    24829.902   -296326.52    65657.413    42000.608    38803.485    1787.0329    2742093.6 
  400000    300.56548   -128.49585   -148270.24    173014.57    24744.324   -296294.97    65386.727    41958.388    38922.471    1757.1409    2707589.4 
  405000    300.17989   -27.269214   -148296.56    172792.61    24496.047   -296497.51    65610.399    41943.855    38859.411    1787.2827    2670855.4 
  410000    299.72448   -208.21084   -149044.49    172530.46    23485.968   -297229.49    65636.403    41766.471     38988.18    1793.9395    2643532.6 
  415000    299.63763   -1.0365887   -149615.83    172480.47    22864.635   -297130.44    65179.849    41690.384    38873.609    1770.7678    2621294.9 
  420000    299.61908    194.37403   -149346.93    172469.79    23122.859   -297035.05     65183.17    41905.937    38826.797    1772.2216    2595356.6 
  425000    300.90031    302.54667   -149776.84     173207.3    23430.463   -297697.75    65192.909    42064.459    38877.072    1786.4651    2573391.4 
  430000    299.50379   -86.296085    -150266.3    172403.43    22137.122   -298127.78    65193.976     42068.51    38820.558    1778.4372    2556215.8 
  435000    299.75327   -58.585763    -150049.6    172547.03    22497.436   -298098.97    65470.092    42139.482    38677.858    1761.9406    2538342.5 
  440000    299.31253   -184.00354   -150623.18    172293.33    21670.147   -298399.05    65456.999    41909.048    38628.281    1781.5455    2518880.2 
  445000    301.05219    191.59953   -150719.94    173294.73    22574.789    -298416.3    65458.122    41747.165    38722.725    1768.3515    2507373.7 
  450000    299.55939    350.92029   -150037.43    172435.43    22397.997   -298253.57    65656.803    42084.291    38709.319    1765.7325    2492383.5 
  455000    300.65731    56.582643   -150580.48    173067.43     22486.94   -298453.25    65430.016    41967.035     38693.32     1782.393    2485460.2 
  460000     300.2025   -207.11377   -149752.38    172805.62    23053.243   -298378.25    65924.479    42169.267    38754.154    1777.9694      2476820 
  465000    299.38933    108.08809   -150834.81    172337.54    21502.723   -298996.68    65186.221    42298.109     38895.82     1781.714    2457869.3 
  470000     300.3059   -33.340097   -151050.44    172865.14    21814.704   -298979.35    65543.523    42215.802    38412.493    1757.0894      2448192 
  475000    299.53314   -60.973744   -151507.58    172420.32    20912.736   -299176.19    65156.775    42174.279    38586.251    1751.3017    2442394.7 
  480000    299.31945   -18.170725   -151159.51    172297.31    21137.801   -298797.04    65313.757     41803.07    38755.443    1765.2582    2432491.4 
  485000     299.8762    363.78646   -151667.59     172617.8    20950.201   -299323.96    65152.732     41840.92    38872.885    1789.8331    2419582.6 
  490000    300.57782   -34.756694    -151522.4    173021.67    21499.265    -299233.9    65311.236    41948.485     38665.51    1786.2601    2418445.7 
  495000    299.41589   -14.958089    -151731.8    172352.82    20621.022   -299385.02    65483.062    42065.994    38359.284    1744.8819    2405612.5 
  500000    300.13832   -190.23656   -151606.97    172768.68    21161.706   -299585.89    65574.028    41882.951    38746.349     1775.591    2397817.1 
  505000    300.60474   -141.31568    -152660.2    173037.16    20376.962    -300053.7    65054.013    41854.771    38730.279    1754.4386    2392395.6 
  510000    300.36074      151.907   -152166.35    172896.71    20730.366    -299669.8    65307.181    41904.421    38526.922    1764.9322    2385735.2 
  515000    301.20429   -68.334266   -151987.32    173382.28    21394.955   -299706.78    65378.575    41922.741    38638.835    1779.3055    2381626.1 
  520000    300.35696   -266.55363   -152431.73    172894.53    20462.799   -299972.06    65268.144    41745.897    38743.448     1782.841    2376133.6 
  525000    299.83706    91.785839   -152097.59    172595.26    20497.674   -299812.73    65118.085    42146.154    38673.445    1777.4602    2373864.3 
  530000    300.08963    163.38431   -152592.53    172740.65    20148.122   -300188.33    65074.578    42055.809    38702.593    1762.8188    2369811.2 
  535000    299.22005   -34.906637   -151390.22    172240.09    20849.872   -300207.96    65656.935    42301.853     39072.11    1786.8384    2369380.2 
  540000    300.18299   -24.112047   -152460.08    172794.39    20334.316   -300443.47    65215.378    42180.747    38823.577    1763.6945    2360604.4 
  545000    299.82287    29.739781   -153258.73    172587.09    19328.363   -300636.39    64857.021     41915.22     38824.87     1780.546    2359434.7 
  550000    299.77551   -42.714302   -152853.91    172559.84    19705.921   -300354.96     65396.84    41797.976    38546.699    1759.5286    2359712.2 
  550038    299.72163   -78.474174   -152818.46    172528.82    19710.356   -300350.75    65150.345    42036.615    38601.244    1744.0832    2360347.9 
Loop time of 12618 on 64 procs for 250000 steps with 193113 atoms

Performance: 3.424 ns/day, 7.010 hours/ns, 19.813 timesteps/s
99.0% CPU use with 64 MPI tasks x 1 OpenMP threads

MPI task timing breakdown:
Section |  min time  |  avg time  |  max time  |%varavg| %total
---------------------------------------------------------------
Pair    | 2500.8     | 6631.9     | 8913.6     |2208.6 | 52.56
Bond    | 129.27     | 332.25     | 434.66     | 459.1 |  2.63
Kspace  | 1474.2     | 3867.4     | 8221.6     |3036.6 | 30.65
Neigh   | 1393.9     | 1397.7     | 1404.1     |   6.3 | 11.08
Comm    | 199.78     | 232.88     | 253.83     |  69.2 |  1.85
Output  | 1.6297     | 1.6303     | 1.6628     |   0.3 |  0.01
Modify  | 111.48     | 131.97     | 146.84     |  84.5 |  1.05
Other   |            | 22.28      |            |       |  0.18

Nlocal:        3017.39 ave        3080 max        2716 min
Histogram: 1 0 0 1 1 2 3 6 30 20
Nghost:        12341.6 ave       12547 max       11537 min
Histogram: 1 2 1 0 3 3 2 2 33 17
Neighs:         893989 ave      933281 max      775680 min
Histogram: 1 0 2 1 4 0 12 14 17 13

Total # of neighbors = 57215309
Ave neighs/atom = 296.27891
Ave special neighs/atom = 8.4331764
Neighbor list builds = 31017
Dangerous builds = 0
unfix 3

write_restart pre_polym.restart
System init for write_restart ...
PPPM initialization ...
  using 12-bit tables for long-range coulomb (src/kspace.cpp:340)
  G vector (1/distance) = 0.16940653
  grid = 25 25 25
  stencil order = 5
  estimated absolute RMS force accuracy = 0.040458
  estimated relative force accuracy = 0.00012183807
  using double precision FFTW3
  3d grid and FFT values/proc = 1728 400
  generated 66 of 66 mixed pair_coeff terms from arithmetic mixing rule
Hybrid pair style last /omp style lj/charmm/coul/long
Last active /omp style is kspace_style pppm/omp

# 500 ps NVT (1.5 ns total)
fix 1 all nve
fix 3 all temp/rescale 1 300.0 300.0 1.0 1.0
run           250000
PPPM initialization ...
  using 12-bit tables for long-range coulomb (src/kspace.cpp:340)
  G vector (1/distance) = 0.16940653
  grid = 25 25 25
  stencil order = 5
  estimated absolute RMS force accuracy = 0.040458
  estimated relative force accuracy = 0.00012183807
  using double precision FFTW3
  3d grid and FFT values/proc = 1728 400
  generated 66 of 66 mixed pair_coeff terms from arithmetic mixing rule
Hybrid pair style last /omp style lj/charmm/coul/long
Last active /omp style is kspace_style pppm/omp
Per MPI rank memory allocation (min/avg/max) = 22.18 | 30.25 | 46.02 Mbytes
Step Temp Press PotEng KinEng TotEng E_pair E_bond E_angle E_dihed E_impro Volume 
  550038    299.72163   -124.04558    -154073.2    172528.82    18455.624   -301605.48    65150.345    42036.615    38601.244    1744.0832    2360347.9 
  555000    300.18444    100.81061    -153285.1    172795.23    19510.129   -301443.05    65515.311    41878.275    38996.545    1767.8241    2360347.9 
  560000    299.67688   -210.65562   -153536.09    172503.06    18966.972    -301309.8    65254.632    41931.627    38811.983    1775.4665    2360347.9 
  565000    300.07843   -85.923865   -153006.67     172734.2    19727.531    -301122.1    65695.466    42050.611    38600.208    1769.1409    2360347.9 
  570000     299.4016   -202.73004   -152884.83     172344.6    19459.773   -301120.78    65366.273    42072.562    39006.119    1790.9956    2360347.9 
  575000    299.72396   -212.65071   -153322.61    172530.16    19207.547   -301153.96     65205.24    42170.933    38700.173    1755.0041    2360347.9 
  580000    299.39862   -185.02063   -153092.48    172342.88    19250.401   -301278.81    65664.545    41926.831    38819.904    1775.0417    2360347.9 
  585000    300.46642   -152.98792   -153505.99    172957.54    19451.553   -301411.07    65335.437    42053.562    38755.127    1760.9593    2360347.9 
  590000    299.46713   -263.53452   -153435.95    172382.32    18946.371   -301384.47    65406.973    41988.362    38774.061    1779.1269    2360347.9 
  595000    299.39984   -75.314242   -153501.67    172343.59    18841.912   -301331.05    65367.003    41931.802    38745.181    1785.3936    2360347.9 
  600000    300.61947   -162.39156   -153141.35    173045.64    19904.295   -301048.41     65214.45    41876.021    39045.081    1771.5136    2360347.9 
  605000    300.38177   -127.44549   -153505.33    172908.81    19403.481   -301320.79     65324.28    41989.572    38727.816    1773.7847    2360347.9 
  610000    300.22559    -7.624858   -152881.28    172818.91    19937.634   -300874.04    65369.498    42085.764    38767.806    1769.6969    2360347.9 
  615000    300.60249   -4.1081691   -153839.22    173035.87     19196.65   -301290.54    65225.926    41895.572    38556.123    1773.7019    2360347.9 
  620000    300.04961   -91.061005   -153744.52    172717.61    18973.094   -301363.99    65069.874    42012.178     38753.51    1783.9057    2360347.9 
  625000    299.91721   -129.83042   -153139.08     172641.4    19502.321   -301027.97    65054.868    42203.246    38865.496    1765.2794    2360347.9 
  630000    299.96655   -94.648423   -153733.04     172669.8    18936.758   -301125.99    65089.069    41880.497    38653.517    1769.8606    2360347.9 
  635000    299.74749   -125.25689   -153259.77    172543.71    19283.937   -301258.07    65349.778    42039.834    38839.276    1769.4147    2360347.9 
  640000     300.0163   -85.808874   -153324.66    172698.44    19373.784   -300986.04     65184.04    41984.964    38721.312    1771.0706    2360347.9 
  645000    299.97667   -268.80931   -153302.57    172675.63    19373.059   -301171.71    65227.656    42234.368    38641.628      1765.49    2360347.9 
  650000    299.79737   -222.68401   -153352.38    172572.42    19220.034   -301158.29    65410.368    41795.052    38815.055    1785.4347    2360347.9 
  655000    300.37338   -159.12634   -153506.54    172903.99    19397.445   -301222.45    65319.913    41779.547    38852.838    1763.6128    2360347.9 
  660000    300.46311   -59.391868   -153310.82    172955.64    19644.824   -301259.26    65473.315    41884.124    38809.889    1781.1175    2360347.9 
  665000    299.34586   -238.54769   -153338.46    172312.52     18974.06   -301236.42    65313.801    42020.421    38778.922    1784.8227    2360347.9 
  670000    300.29125   -178.65219   -152960.19    172856.71    19896.525   -301226.68      65786.4    42141.589    38568.457    1770.0442    2360347.9 
  675000    299.73293    -80.49027    -153231.5    172535.32    19303.826   -300956.66    65159.397    42064.848    38731.657    1769.2657    2360347.9 
  680000    300.34489    45.970033   -153513.85    172887.59    19373.739   -301044.12    64929.421    42177.163    38661.125    1762.5604    2360347.9 
  685000    300.52736   -292.40764   -153131.26    172992.62    19861.358   -301199.05    65347.264    41843.951    39097.291    1779.2792    2360347.9 
  690000    300.01982    -104.2244    -153733.9    172700.46    18966.561   -301312.29    64980.668    42099.896    38724.488    1773.3325    2360347.9 
  695000    299.55621    -300.6115   -153541.16     172433.6    18892.438   -301263.81    65457.489    41765.604    38741.625    1757.9317    2360347.9 
  700000    299.93583   -447.97363   -153609.03    172652.12    19043.089   -301339.53    65302.901    41936.538    38727.425    1763.6317    2360347.9 
  705000    299.57386   -35.341176   -153064.34    172443.76    19379.413    -300953.5    65367.294    41837.161    38916.517    1768.1874    2360347.9 
  710000    300.07231   -339.74106   -153103.76    172730.68    19626.923   -301025.37    65516.367    41762.624    38860.815    1781.8077    2360347.9 
  715000    300.05379   -414.24152   -153272.62    172720.02    19447.399   -301293.94    65377.633    42098.579    38770.008    1775.0942    2360347.9 
  720000    300.06246   -235.74992   -153589.94    172725.01    19135.067    -301268.7    65185.138    41957.453    38758.651    1777.5152    2360347.9 
  725000     299.9587   -155.14812   -153208.76    172665.28    19456.525   -301127.68    65361.785    41902.751     38877.27    1777.1174    2360347.9 
  730000    300.24117   -49.178211   -153537.68    172827.88    19290.209   -301393.18    65270.035    42137.265      38674.4    1773.8056    2360347.9 
  735000     300.7253   -304.89062   -153582.18    173106.56    19524.385   -301258.54    65420.607    41982.091    38512.526     1761.138    2360347.9 
  740000    299.93975    37.317138   -153384.08    172654.38    19270.298   -301274.63    65357.974    41822.448    38920.308    1789.8231    2360347.9 
  745000    299.53997     81.58957   -153484.98    172424.25    18939.268   -300941.26    65084.804    41889.541    38714.344    1767.5818    2360347.9 
  750000     300.2069   -241.05595   -153374.63    172808.15    19433.524   -301278.59    65280.266    41999.232    38857.904    1766.5602    2360347.9 
  755000    300.17027   -314.99032   -153525.29    172787.07    19261.781    -301452.6    64998.626    41983.038    39158.333    1787.3157    2360347.9 
  760000    300.50286   -480.85468    -153396.3    172978.52    19582.221   -301533.42    65415.194    41760.501    39180.011    1781.4141    2360347.9 
  765000    299.59801   -133.47303   -152822.05    172457.66    19635.611   -301218.59    65742.238    42279.106    38619.123    1756.0807    2360347.9 
  770000    300.11622    65.943344   -153731.63    172755.96    19024.322   -301219.66    64934.702    41829.109    38932.793    1791.4242    2360347.9 
  775000    300.14429    -112.7774   -153296.76    172772.12    19475.356   -301276.89    65436.408    41976.892    38799.289    1767.5367    2360347.9 
  780000       299.38   -187.86813   -153190.28    172332.17    19141.886   -301260.87    65147.259    42190.953     38946.67     1785.705    2360347.9 
  785000    299.89846   -115.97853   -153185.75    172630.61    19444.863   -301247.03    65532.795    41936.617    38822.874    1769.0032    2360347.9 
  790000    299.88915   -77.155037   -153036.33    172625.25    19588.924   -301180.21    65440.188    42164.176    38756.331    1783.1875    2360347.9 
  795000    299.45532   -59.638335   -153269.44    172375.52    19106.084   -301237.56    65326.726    41917.309    38951.834    1772.2534    2360347.9 
  800000     300.0293   -241.03055    -153846.6    172705.92    18859.325   -301197.49     64970.56    41901.606    38701.907    1776.8231    2360347.9 
  800038    300.26273   -295.39613    -154006.7    172840.29    18833.591   -301412.53    65225.518    42005.345    38416.092    1758.8679    2360347.9 
Loop time of 9923.78 on 64 procs for 250000 steps with 193113 atoms

Performance: 4.353 ns/day, 5.513 hours/ns, 25.192 timesteps/s
98.7% CPU use with 64 MPI tasks x 1 OpenMP threads

MPI task timing breakdown:
Section |  min time  |  avg time  |  max time  |%varavg| %total
---------------------------------------------------------------
Pair    | 6547.6     | 6792.9     | 7340.7     | 196.5 | 68.45
Bond    | 233.86     | 238.05     | 252.28     |  24.0 |  2.40
Kspace  | 864.45     | 1407.1     | 1650.3     | 428.6 | 14.18
Neigh   | 1111.9     | 1114.1     | 1120.8     |   8.3 | 11.23
Comm    | 258.03     | 267.62     | 286.33     |  35.0 |  2.70
Output  | 1.6549     | 1.6556     | 1.6793     |   0.2 |  0.02
Modify  | 61.048     | 82.303     | 93.841     | 107.4 |  0.83
Other   |            | 20.06      |            |       |  0.20

Nlocal:        3017.39 ave        3077 max        2960 min
Histogram: 1 1 7 10 13 17 9 3 2 1
Nghost:        12352.5 ave       12442 max       12257 min
Histogram: 1 3 4 6 17 14 10 3 3 3
Neighs:         892206 ave      928671 max      852602 min
Histogram: 2 2 10 11 7 6 8 7 10 1

Total # of neighbors = 57101209
Ave neighs/atom = 295.68806
Ave special neighs/atom = 8.4331764
Neighbor list builds = 30575
Dangerous builds = 0
