LAMMPS (29 Sep 2021 - Update 3)
OMP_NUM_THREADS environment is not set. Defaulting to 1 thread. (src/comm.cpp:98)
  using 1 OpenMP thread(s) per MPI task


# ----------------- Init Section -----------------

include "system.in.init"
    # Default styles and settings for AMBER based force-fields:
    units           real
    atom_style      full
    bond_style      hybrid harmonic
    angle_style     hybrid harmonic
    dihedral_style  hybrid fourier
    improper_style  hybrid cvff
    pair_style      hybrid lj/charmm/coul/long 9.0 10.0 10.0
    kspace_style    pppm 0.0001

    # NOTE: If you do not want to use long-range coulombic forces,
    #       comment out the two lines above and uncomment this line:
    # pair_style      hybrid lj/charmm/coul/charmm 9.0 10.0

    pair_modify     mix arithmetic
    special_bonds   amber


# ----------------- Atom Definition Section -----------------

read_data "cleanedsystem.data" extra/bond/per/atom 1 extra/angle/per/atom 12 extra/dihedral/per/atom 12 extra/improper/per/atom 12 extra/special/per/atom 12
Reading data file ...
  orthogonal box = (0.0000000 0.0000000 0.0000000) to (10.000000 10.000000 10.000000)
  1 by 1 by 1 MPI processor grid
  reading atoms ...
  92 atoms
  scanning bonds ...
  4 = max bonds/atom
  scanning angles ...
  15 = max angles/atom
  scanning dihedrals ...
  21 = max dihedrals/atom
  scanning impropers ...
  14 = max impropers/atom
  reading bonds ...
  92 bonds
  reading angles ...
  116 angles
  reading dihedrals ...
  184 dihedrals
  reading impropers ...
  22 impropers
Finding 1-2 1-3 1-4 neighbors ...
  special bond factors lj:    0        0        0.5     
  special bond factors coul:  0        0        0.8333333333333334
     3 = max # of 1-2 neighbors
     6 = max # of 1-3 neighbors
    11 = max # of 1-4 neighbors
    25 = max # of special neighbors
  special bonds CPU = 0.000 seconds
  read_data CPU = 0.010 seconds


# ----------------- Settings Section -----------------

include "cleanedsystem.in.settings"
pair_coeff 1 1 lj/charmm/coul/long 0.2100 3.39966950842 # cp C DLM 11/2007 well depth from OPLS replacing 0.0860
pair_coeff 2 2 lj/charmm/coul/long 0.0860 3.39966950842 # sp2 atom in the middle of C=CD-CD=C
pair_coeff 3 3 lj/charmm/coul/long 0.0860 3.39966950842 # OPLS
pair_coeff 4 4 lj/charmm/coul/long 0.0150 2.59964245953 # Spellmeyer
pair_coeff 5 5 lj/charmm/coul/long 0.0157 1.06907846177 # !Ferguson base pair geom.
pair_coeff 6 6 lj/charmm/coul/long 0.0000 0.0 # OPLS Jorgensen, JACS,110,(1988),1657
pair_coeff 7 7 lj/charmm/coul/long 0.1700 3.24999852378 # OPLS
pair_coeff 8 8 lj/charmm/coul/long 0.1700 3.24999852378 # OPLS
pair_coeff 9 9 lj/charmm/coul/long 0.2100 2.95992190115 # OPLS
pair_coeff 10 10 lj/charmm/coul/long 0.2104 3.06647338784 # OPLS
bond_coeff 1 harmonic 404.1 1.4400 # SOUECE3 1
bond_coeff 2 harmonic 777.0 1.1660 # SOURCE2 9 0.0052
bond_coeff 3 harmonic 357.2 1.4800 # SOUECE3 1
bond_coeff 4 harmonic 390.5 1.4070 # SOURCE3 9 0.0124
bond_coeff 5 harmonic 623.6 1.2244 # SOURCE4 15 0.0036
bond_coeff 6 harmonic 425.4 1.3330 # SOURCE1 53 0.0000
bond_coeff 7 harmonic 478.4 1.3870 # SOURCE1 6228 0.0147
bond_coeff 8 harmonic 344.3 1.0870 # SOURCE3 1496 0.0045
bond_coeff 9 harmonic 551.6 1.3030 # SOURCE4 7 0.0058
bond_coeff 10 harmonic 372.3 1.4220 # SOURCE3 9 0.0098
bond_coeff 11 harmonic 375.5 1.0290 # SOURCE3 108 0.0096
bond_coeff 12 harmonic 410.2 1.0090 # SOURCE3 149 0.0098
bond_coeff 13 harmonic 369.6 0.9740 # SOURCE3 367 0.0105
angle_coeff 1 harmonic 76.69 121.23 # SOURCE4 6 0.0958
angle_coeff 2 harmonic 65.86 120.00 # SOURCE3 1
angle_coeff 3 harmonic 64.69 120.60 # SOURCE3 1
angle_coeff 4 harmonic 67.18 119.97 # SOURCE3 1969 0.3480
angle_coeff 5 harmonic 48.46 120.01 # SOURCE3 2980 0.2511
angle_coeff 6 harmonic 70.95 119.57 # SOURCE3 1
angle_coeff 7 harmonic 67.97 119.89 # SOURCE3 18 0.2095
angle_coeff 8 harmonic 50.01 120.00 # SOURCE3 1
angle_coeff 9 harmonic 64.88 116.54 # SOURCE3 1
angle_coeff 10 harmonic 47.33 118.36 # SOURCE4 40 1.8005
angle_coeff 11 harmonic 47.36 115.94 # SOURCE4 537 1.8890
angle_coeff 12 harmonic 49.91 108.98 # SOURCE3 6 2.2379
dihedral_coeff 1 fourier 1 0.0 2 180.0 #
dihedral_coeff 2 fourier 1 0.7 2 180.0 # optimized by Junmei Wang, March 2013
dihedral_coeff 3 fourier 1 0.65 2 180.0 #
dihedral_coeff 4 fourier 1 1.05 2 180.0 # parm99
dihedral_coeff 5 fourier 1 3.625 2 180.0 # intrpol.bsd.on C6H6
dihedral_coeff 6 fourier 1 0.45 2 180.0 #
dihedral_coeff 7 fourier 1 0.0 3 180.0 #
improper_coeff 1 cvff 1.1 -1 2 # bsd.on C6H6 nmodes
improper_coeff 2 cvff 1.1 -1 2 # JCC,7,(1986),230
improper_coeff 3 cvff 1.1 -1 2 #


# ----------------- Run Section -----------------

neighbor	2.5 bin
neigh_modify	every 1 delay 0 check yes
timestep        1.0

# Initial minimization and equilibration
dump		init all xtc 500 pre_react.xtc
thermo_style custom step temp press pe ke etotal epair ebond eangle edihed eimp vol
thermo 500

minimize 	0 0 1000 10000
PPPM initialization ...
WARNING: System is not charge neutral, net charge = 6.0000000 (src/kspace.cpp:325)
  using 12-bit tables for long-range coulomb (src/kspace.cpp:340)
  G vector (1/distance) = 0.26094846
  grid = 5 5 5
  stencil order = 5
  estimated absolute RMS force accuracy = 0.0078926974
  estimated relative force accuracy = 2.3768624e-05
  using double precision KISS FFT
  3d grid and FFT values/proc = 1728 125
Neighbor list info ...
  update every 1 steps, delay 0 steps, check yes
  max neighbors/atom: 2000, page size: 100000
  master list distance cutoff = 12.5
  ghost atom cutoff = 12.5
  binsize = 6.25, bins = 2 2 2
  1 neighbor lists, perpetual/occasional/extra = 1 0 0
  (1) pair lj/charmm/coul/long, perpetual
      attributes: half, newton on
      pair build: half/bin/newton
      stencil: half/bin/3d
      bin: standard
Per MPI rank memory allocation (min/avg/max) = 24.49 | 24.49 | 24.49 Mbytes
Step Temp Press PotEng KinEng TotEng E_pair E_bond E_angle E_dihed E_impro Volume 
       0            0 1.2357898e+15 4.5056813e+12            0 4.5056813e+12 4.5056813e+12    40.812094       1.6586 0.00069672911 6.3478241e-05         1000 
     500            0    24131.479   -945.31116            0   -945.31116   -960.72599    1.9451979    2.1891178    11.213498   0.06701384         1000 
     704            0    21628.573    -948.2646            0    -948.2646   -962.11271     1.733491    2.0278696    10.008683  0.078069654         1000 
Loop time of 1.6326 on 1 procs for 704 steps with 92 atoms

100.0% CPU use with 1 MPI tasks x 1 OpenMP threads

Minimization stats:
  Stopping criterion = linesearch alpha is zero
  Energy initial, next-to-last, final = 
      4505681266986.07     -948.264596124     -948.264596124
  Force two-norm initial, final = 3.3964684e+14 1.2290151
  Force max component initial, final = 2.1552046e+14 0.26889857
  Final line search alpha, max atom move = 4.2443018e-09 1.1412867e-09
  Iterations, force evaluations = 704 1796

MPI task timing breakdown:
Section |  min time  |  avg time  |  max time  |%varavg| %total
---------------------------------------------------------------
Pair    | 1.4016     | 1.4016     | 1.4016     |   0.0 | 85.85
Bond    | 0.043193   | 0.043193   | 0.043193   |   0.0 |  2.65
Kspace  | 0.13387    | 0.13387    | 0.13387    |   0.0 |  8.20
Neigh   | 0.017661   | 0.017661   | 0.017661   |   0.0 |  1.08
Comm    | 0.029036   | 0.029036   | 0.029036   |   0.0 |  1.78
Output  | 5.1975e-05 | 5.1975e-05 | 5.1975e-05 |   0.0 |  0.00
Modify  | 0          | 0          | 0          |   0.0 |  0.00
Other   |            | 0.007164   |            |       |  0.44

Nlocal:        92.0000 ave          92 max          92 min
Histogram: 1 0 0 0 0 0 0 0 0 0
Nghost:        3852.00 ave        3852 max        3852 min
Histogram: 1 0 0 0 0 0 0 0 0 0
Neighs:        34655.0 ave       34655 max       34655 min
Histogram: 1 0 0 0 0 0 0 0 0 0

Total # of neighbors = 34655
Ave neighs/atom = 376.68478
Ave special neighs/atom = 8.4347826
Neighbor list builds = 14
Dangerous builds = 0
velocity all create 300.0 123456 dist gaussian

fix 3 all nvt temp 300.0 300.0 100.0
run           10000
PPPM initialization ...
  using 12-bit tables for long-range coulomb (src/kspace.cpp:340)
  G vector (1/distance) = 0.26094846
  grid = 5 5 5
  stencil order = 5
  estimated absolute RMS force accuracy = 0.0078926974
  estimated relative force accuracy = 2.3768624e-05
  using double precision KISS FFT
  3d grid and FFT values/proc = 1728 125
Per MPI rank memory allocation (min/avg/max) = 23.37 | 23.37 | 23.37 Mbytes
Step Temp Press PotEng KinEng TotEng E_pair E_bond E_angle E_dihed E_impro Volume 
     704          300     25348.46    -948.2646    81.376114   -866.88848   -962.11271     1.733491    2.0278696    10.008683  0.078069654         1000 
    1000     254.7681    28147.689   -881.01253    69.106794   -811.90574   -944.67948    22.206102    16.986708     23.51775   0.95638972         1000 
    1500    281.39049      25610.9   -870.04394    76.328215   -793.71572   -946.99002    33.535828    19.774175    22.987798   0.64828162         1000 
    2000    269.95407    24756.344    -852.4534    73.226045   -779.22735   -941.93978    38.761485    22.961888    26.310428    1.4525832         1000 
    2500    300.04857    34709.619   -860.64265    81.389289   -779.25336    -951.4356    35.290175    23.148173      31.5164   0.83820369         1000 
    3000    308.37301    23172.378   -869.87693    83.647323    -786.2296   -940.07171    30.108972    16.953709    22.095544    1.0365635         1000 
    3500    329.87389    31577.724   -859.90518    89.479518   -770.42567   -933.86296    26.745401     21.37021    24.591627    1.2505387         1000 
    4000    319.45084    15099.791   -862.52053    86.652228    -775.8683   -935.58456    33.724422    16.719633    21.624665   0.99530591         1000 
    4500    282.38304    29411.765   -861.02255    76.597448    -784.4251   -931.42043    30.917676    16.673044    22.243731   0.56342955         1000 
    5000    305.96816     34484.26   -875.72535    82.995001   -792.73035   -946.23214    28.835742     15.77638    24.866042      1.02863         1000 
    5500    316.24323    26159.199   -881.67747     85.78215   -795.89532   -946.04575    24.012593    21.557792    18.198938   0.59896127         1000 
    6000    294.65189    17814.392   -878.08766    79.925419   -798.16224   -942.07203     22.45369    19.829029    21.059565   0.64208835         1000 
    6500    281.22282    18086.343   -872.97463    76.282734    -796.6919    -946.9621    32.268738    17.460153    23.070435    1.1881399         1000 
    7000    293.73885    40273.043   -871.82977    79.677755   -792.15202     -945.539    33.301019    19.137754    20.470574   0.79987563         1000 
    7500    333.51036     25816.06   -866.83083    90.465923    -776.3649   -940.46315    32.134295    19.131171    21.853004   0.51385292         1000 
    8000    357.56475    34226.914   -866.19125    96.990768   -769.20048   -953.17161    29.853569    22.379209    33.764169   0.98341029         1000 
    8500    302.05366    19016.553   -883.06662    81.933178   -801.13344   -962.84968    24.844956    19.855319    33.832241    1.2505485         1000 
    9000    302.45048    35334.888   -881.54609    82.040815   -799.50527   -953.28127    24.285714    17.606053    28.553815    1.2896066         1000 
    9500    271.20382    27001.443   -880.40076    73.565045   -806.83572   -963.06209     24.11107    19.705429    37.606374    1.2384593         1000 
   10000    295.23853    22942.249   -891.29904    80.084548   -811.21449   -957.17458    21.201849    18.627538    25.276348   0.76980877         1000 
   10500    248.56808    23419.334   -900.58251    67.425016   -833.15749   -969.72742    24.819588    14.882659    28.352696    1.0899706         1000 
   10704    287.96911    32451.235    -889.8484     78.11269   -811.73571   -960.67743    19.701565    18.811907    31.411321   0.90424279         1000 
Loop time of 7.12531 on 1 procs for 10000 steps with 92 atoms

Performance: 121.258 ns/day, 0.198 hours/ns, 1403.448 timesteps/s
100.0% CPU use with 1 MPI tasks x 1 OpenMP threads

MPI task timing breakdown:
Section |  min time  |  avg time  |  max time  |%varavg| %total
---------------------------------------------------------------
Pair    | 5.7144     | 5.7144     | 5.7144     |   0.0 | 80.20
Bond    | 0.22455    | 0.22455    | 0.22455    |   0.0 |  3.15
Kspace  | 0.73779    | 0.73779    | 0.73779    |   0.0 | 10.35
Neigh   | 0.23399    | 0.23399    | 0.23399    |   0.0 |  3.28
Comm    | 0.16938    | 0.16938    | 0.16938    |   0.0 |  2.38
Output  | 0.0011525  | 0.0011525  | 0.0011525  |   0.0 |  0.02
Modify  | 0.021179   | 0.021179   | 0.021179   |   0.0 |  0.30
Other   |            | 0.02291    |            |       |  0.32

Nlocal:        92.0000 ave          92 max          92 min
Histogram: 1 0 0 0 0 0 0 0 0 0
Nghost:        3757.00 ave        3757 max        3757 min
Histogram: 1 0 0 0 0 0 0 0 0 0
Neighs:        34565.0 ave       34565 max       34565 min
Histogram: 1 0 0 0 0 0 0 0 0 0

Total # of neighbors = 34565
Ave neighs/atom = 375.70652
Ave special neighs/atom = 8.4347826
Neighbor list builds = 171
Dangerous builds = 0
unfix 3

fix 3 all npt temp 300 300 100 iso 1000 1000 100
run           10000
PPPM initialization ...
  using 12-bit tables for long-range coulomb (src/kspace.cpp:340)
  G vector (1/distance) = 0.26094846
  grid = 5 5 5
  stencil order = 5
  estimated absolute RMS force accuracy = 0.0078926974
  estimated relative force accuracy = 2.3768624e-05
  using double precision KISS FFT
  3d grid and FFT values/proc = 1728 125
Per MPI rank memory allocation (min/avg/max) = 23.37 | 23.37 | 23.37 Mbytes
Step Temp Press PotEng KinEng TotEng E_pair E_bond E_angle E_dihed E_impro Volume 
   10704    287.96911    32451.235    -889.8484     78.11269   -811.73571   -960.67743    19.701565    18.811907    31.411321   0.90424279         1000 
   11000    260.25039    2336.6017   -845.42577    70.593885   -774.83189   -906.26596    24.588846    15.888778    19.976842   0.38572308    1387.3848 
   11500    284.03654   -3622.3095   -863.58152    77.045968   -786.53556   -927.34799    25.491498     19.66818    18.108316   0.49847409    1329.2887 
   12000     260.6004   -1710.1828   -838.29664    70.688827   -767.60781    -906.7722    28.394323    16.504853    22.998069   0.57831866     1503.288 
   12500     282.1491   -359.31789   -842.23043    76.533992   -765.69644   -905.14187    25.740963    17.579986    19.137829   0.45266751    1596.1859 
   13000    303.20293   -3631.0754     -816.313    82.244921   -734.06808    -896.0167    30.019944    22.145203    26.526875    1.0116756    1560.6992 
   13500    284.30015    7305.4779   -856.58037    77.117473    -779.4629   -914.13381    20.135598      17.2049    19.421245   0.79169493    1533.7543 
   14000     309.7277    6027.8754   -840.15448    84.014789   -756.13969   -902.04675    25.394364    17.823342    18.099057   0.57550508    1599.5146 
   14500    317.26544   -4507.9631   -854.37269    86.059429   -768.31326   -913.74094    25.302958    13.616451    19.938361   0.51047212    1513.0189 
   15000    286.44135   -7472.0124    -859.6215     77.69828   -781.92322   -918.46583    24.328577    11.520409    22.151206   0.84413682    1561.0018 
   15500    275.19812    8626.3401   -860.88313    74.648513   -786.23461   -918.32125    22.459318    15.843621    18.144299   0.99088677    1465.1347 
   16000    290.13179    8332.7794   -843.87583    78.699325   -765.17651   -913.16349    30.019163    13.478231    24.990569   0.79969604     1574.199 
   16500    302.60656    8718.2769   -845.08409    82.083154   -763.00093   -919.49934    26.932085    16.274455    29.878196    1.3305205    1485.2005 
   17000    322.71197    -874.3894   -852.62695    87.536821   -765.09013    -914.9615    26.125483    13.850236    21.448261   0.91056583    1530.1886 
   17500    325.76994    2227.7326   -837.70968    88.366305   -749.34338   -900.47554    25.530496    11.990554     24.39338   0.85143193     1595.727 
   18000     305.6501    4896.4673   -847.71343    82.908724   -764.80471   -909.71292    23.997883    14.497836    22.707977   0.79579613    1524.4001 
   18500    301.81644    -3548.759   -850.10868     81.86883   -768.23985   -914.30334    25.985508    14.809069    22.778107   0.62198221    1563.0435 
   19000     292.8935   -2658.7958   -846.87471    79.448451   -767.42626   -923.43126    31.414194    17.642431     26.05023     1.449694     1541.259 
   19500    301.27227    1572.0349   -832.43039    81.721221   -750.70917   -909.82199    35.459594    19.237973    22.099149   0.59488484    1634.6549 
   20000    282.66244    3446.7196   -833.07261    76.673237   -756.39937   -905.21181    26.198197    15.472639    29.464082    1.0042811    1617.4599 
   20500    331.89329    -2661.288    -831.7557    90.027289   -741.72841   -904.81474    28.017185    15.849887    28.233915   0.95805839    1617.3269 
   20704    338.03814    2488.7404    -860.4628    91.694102    -768.7687   -922.41112    25.912037    11.741702    23.353039   0.94153652     1514.384 
Loop time of 5.37401 on 1 procs for 10000 steps with 92 atoms

Performance: 160.774 ns/day, 0.149 hours/ns, 1860.809 timesteps/s
99.9% CPU use with 1 MPI tasks x 1 OpenMP threads

MPI task timing breakdown:
Section |  min time  |  avg time  |  max time  |%varavg| %total
---------------------------------------------------------------
Pair    | 3.8205     | 3.8205     | 3.8205     |   0.0 | 71.09
Bond    | 0.27431    | 0.27431    | 0.27431    |   0.0 |  5.10
Kspace  | 0.70461    | 0.70461    | 0.70461    |   0.0 | 13.11
Neigh   | 0.18873    | 0.18873    | 0.18873    |   0.0 |  3.51
Comm    | 0.12133    | 0.12133    | 0.12133    |   0.0 |  2.26
Output  | 0.001045   | 0.001045   | 0.001045   |   0.0 |  0.02
Modify  | 0.2451     | 0.2451     | 0.2451     |   0.0 |  4.56
Other   |            | 0.01839    |            |       |  0.34

Nlocal:        92.0000 ave          92 max          92 min
Histogram: 1 0 0 0 0 0 0 0 0 0
Nghost:        2812.00 ave        2812 max        2812 min
Histogram: 1 0 0 0 0 0 0 0 0 0
Neighs:        22392.0 ave       22392 max       22392 min
Histogram: 1 0 0 0 0 0 0 0 0 0

Total # of neighbors = 22392
Ave neighs/atom = 243.39130
Ave special neighs/atom = 8.4347826
Neighbor list builds = 186
Dangerous builds = 0
